&control
      calculation  = 'scf'
      prefix         = 'h2o_bec'
      pseudo_dir =  '/home/amano/src/q-e-qe-6.7.0/pseudo/' 
      outdir         = './work/'
 
/
&system
      ibrav=1
      celldm(1) =12
      nat=3,
      ntyp=2,
      ecutwfc=80.0
      nosym =.TRUE.
/
&electrons
      conv_thr=1e-8
/
&ions
/
ATOMIC_SPECIES
H   1.00d0 H.blyp-vbc.UPF
O  16.0d0 O.blyp-mt.UPF
 
 
ATOMIC_POSITIONS (angstrom)
 O 0.0099 0.0099 0.0
 H 1.8259165938371 -0.22617528834644 0.006688162495837
 H -0.2144630506862 1.8270567413544 0.0010845050021031
 
K_POINTS (automatic)
 1 1 1 0 0 0