&control
      calculation = 'scf'
      prefix = 'h2o_bec'
      pseudo_dir = '/home/amano/src/qe-6.4.1/pseudo/'
      outdir           = './work/'
 
/
&system
      ibrav=1, celldm(1) =10,
      nat=3, ntyp=2,
      ecutwfc=70.0
      nosym =.TRUE.
/
&electrons
      conv_thr=1e-8
/
&ions
/
ATOMIC_SPECIES
H   1.00784 H.pbe-rrkjus_psl.1.0.0.UPF
O  15.999 O.pbe-n-rrkjus_psl.1.0.0.UPF
 
 
ATOMIC_POSITIONS (angstrom)
 O 0.0 0.0 0.0
 H 0.9693 0.0 0.0
 H -0.21804505697550816 0.9444569037963286 0.0
 
K_POINTS (automatic)
 1 1 1 0 0 0