&inputpp
  outdir         = './work/' 
  prefix         = 'h2o_bec' 
  seedname       = 'h2o_bec' 
  spin_component = 'none' 
  write_mmn      = .true. 
  write_amn      = .true. 
  write_unk      = .true. 
/ 