&control
      calculation = 'scf'
      prefix = 'h2o_bec'
      pseudo_dir = '/home/amano/src/qe-6.4.1/pseudo/'
      outdir           = './work/'
 
/
&system
      ibrav=1, celldm(1) =12,
      nat=3, ntyp=2,
      ecutwfc=80.0
      nosym =.TRUE.
/
&electrons
      conv_thr=1e-8
/
&ions
/
ATOMIC_SPECIES
H   1.00d0 H.blyp-vbc.UPF
O  16.0d0 O.blyp-mt.UPF
 
 
ATOMIC_POSITIONS (angstrom)
 O 0.0099 0.0099 0.0
 H 1.8288172804403 -0.22268768087559 0.012106933804916
 H -0.21872107570069 1.8274482952321 0.0043170374790441
 
K_POINTS (automatic)
 1 1 1 0 0 0