&control
      calculation  = 'scf'
      prefix         = 'h2o_bec'
      pseudo_dir =  '/home/amano/src/q-e-qe-6.7.0/pseudo/' 
      outdir         = './work/'
 
/
&system
      ibrav=1
      celldm(1) =12
      nat=3,
      ntyp=2,
      ecutwfc=80.0
      nosym =.TRUE.
/
&electrons
      conv_thr=1e-8
/
&ions
/
ATOMIC_SPECIES
H   1.00d0 H.blyp-vbc.UPF
O  16.0d0 O.blyp-mt.UPF
 
 
ATOMIC_POSITIONS (angstrom)
 O 0.0099 0.0099 0.0
 H 1.8298183587427 -0.22974257846115 0.012805623603949
 H -0.21753560735535 1.831635151308 -0.0020270591791089
 
K_POINTS (automatic)
 1 1 1 0 0 0