&inputpp 
   outdir         = './work/'
   prefix         = 'tanryo'
   seedname       = 'tanryo'
   spin_component = 'none'
   write_mmn      = .true.
   write_amn      = .true.
   write_unk      = .true.
/
