&CONTROL
   calculation      = 'scf'
   prefix	    = 'tanryo'
   tprnfor          = .true.
   pseudo_dir       = '/home/amano/src/qe-6.4.1/pseudo/'
   outdir	    = './work/'

/
&SYSTEM
   ecutwfc          = 50.0
   ecutrho          = 200.0
   ntyp             = 3
   nat              = 24
   ibrav            = 0
   nosym =.TRUE.
   occupations = 'fixed'
/
&ELECTRONS
/
&IONS
/
&CELL
/

ATOMIC_SPECIES
C 12.011 C.pbe-n-rrkjus_psl.1.0.0.UPF
O 15.999 O.pbe-n-rrkjus_psl.1.0.0.UPF
H 1.008 H.pbe-rrkjus_psl.1.0.0.UPF

K_POINTS {gamma}


CELL_PARAMETERS angstrom
20.36400000000000 0.00000000000000 0.00000000000000
0.00000000000000 20.36400000000000 0.00000000000000
0.00000000000000 0.00000000000000 20.36400000000000

ATOMIC_POSITIONS angstrom
C 11.4700000000 10.1800000000 9.6200000000 
C 11.3200000000 10.1800000000 11.0100000000 
C 10.0300000000 10.1800000000 11.5800000000 
C 8.9000000000 10.1800000000 10.7400000000 
C 9.0400000000 10.1800000000 9.3600000000 
C 10.3300000000 10.1800000000 8.7800000000 
C 9.8100000000 10.1800000000 13.0600000000 
C 10.5600000000 10.1800000000 7.3100000000 
O 11.6600000000 10.1900000000 6.7700000000 
O 9.3900000000 10.1800000000 6.6100000000 
O 8.7000000000 10.1900000000 13.5900000000 
O 10.9800000000 10.1800000000 13.7500000000 
C 9.5500000000 10.1800000000 5.1800000000 
C 10.8100000000 10.1800000000 15.1900000000 
H 12.4600000000 10.1800000000 9.1500000000 
H 12.2000000000 10.1800000000 11.6600000000 
H 7.9100000000 10.1900000000 11.2100000000 
H 8.1700000000 10.1900000000 8.7100000000 
H 10.1000000000 11.0800000000 4.8500000000 
H 10.1100000000 9.2900000000 4.8500000000 
H 8.5400000000 10.1700000000 4.7700000000 
H 11.8300000000 10.1700000000 15.6000000000 
H 10.2600000000 11.0800000000 15.5100000000 
H 10.2500000000 9.2900000000 15.5100000000 

