&CONTROL
/
&SYSTEM
   ntyp             = 2
   nat              = 96
   ibrav            = 0
/
&ELECTRONS
/
&IONS
/
&CELL
/

ATOMIC_SPECIES
O 15.999 None
H 1.008 None

K_POINTS gamma

CELL_PARAMETERS angstrom
9.86520000000000 0.00000000000000 0.00000000000000
0.00000000000000 9.86520000000000 0.00000000000000
0.00000000000000 0.00000000000000 9.86520000000000

ATOMIC_POSITIONS angstrom
O 9.1900000000 2.5800000000 8.4100000000 
H 9.2200000000 2.8500000000 7.4800000000 
H 8.2300000000 2.6000000000 8.6400000000 
O 4.0700000000 6.7200000000 2.7000000000 
H 4.0100000000 7.3800000000 3.4000000000 
H 4.1100000000 7.2100000000 1.8900000000 
O 7.2100000000 9.0000000000 5.3400000000 
H 7.5300000000 8.2400000000 5.9400000000 
H 6.8700000000 8.4300000000 4.6200000000 
O 6.4900000000 2.6600000000 9.1700000000 
H 6.7500000000 2.3500000000 0.2000000000 
H 5.5300000000 2.5000000000 9.1800000000 
O 3.3700000000 3.2700000000 5.6500000000 
H 3.4200000000 4.0900000000 6.1600000000 
H 3.8100000000 3.4700000000 4.8500000000 
O 5.5700000000 6.5900000000 8.1900000000 
H 6.2200000000 6.1600000000 7.5600000000 
H 5.6200000000 7.5400000000 7.8200000000 
O 2.7700000000 0.4600000000 6.4000000000 
H 2.4600000000 0.4100000000 7.3600000000 
H 3.1100000000 1.3800000000 6.3100000000 
O 8.2100000000 1.6300000000 4.5600000000 
H 8.8400000000 2.1300000000 5.1200000000 
H 8.0600000000 0.6800000000 4.8200000000 
O 3.9400000000 1.8100000000 8.6200000000 
H 3.1000000000 1.6300000000 9.1300000000 
H 3.7900000000 2.7600000000 8.3100000000 
O 0.3800000000 7.0600000000 2.3400000000 
H 9.4700000000 6.7900000000 1.7700000000 
H 0.2800000000 6.5500000000 3.1600000000 
O 7.5400000000 7.2100000000 0.7300000000 
H 6.8300000000 7.1500000000 0.0300000000 
H 7.8700000000 6.2800000000 0.8100000000 
O 9.4500000000 5.7300000000 8.5600000000 
H 9.5900000000 4.7900000000 8.7100000000 
H 0.2800000000 6.1500000000 9.1200000000 
O 1.0400000000 4.2700000000 0.9500000000 
H 0.7700000000 3.5200000000 1.5800000000 
H 1.9000000000 4.4300000000 1.3000000000 
O 7.6700000000 6.3500000000 6.5700000000 
H 8.0000000000 5.9000000000 5.8400000000 
H 8.2900000000 6.1200000000 7.3200000000 
O 4.4900000000 8.5000000000 0.8300000000 
H 4.1400000000 9.4300000000 0.9600000000 
H 5.1300000000 8.7000000000 0.0900000000 
O 2.6300000000 0.5600000000 2.9000000000 
H 2.6200000000 9.7200000000 3.5600000000 
H 3.5100000000 1.0000000000 3.0600000000 
O 5.2900000000 1.7200000000 3.4800000000 
H 6.1000000000 1.8500000000 2.9400000000 
H 5.5400000000 2.2300000000 4.2700000000 
O 1.4700000000 0.9900000000 9.3000000000 
H 0.7600000000 1.6600000000 9.0200000000 
H 0.8200000000 0.5500000000 0.1300000000 
O 4.2700000000 8.8100000000 4.5400000000 
H 3.6000000000 9.1000000000 5.2000000000 
H 5.0500000000 9.3000000000 4.7900000000 
O 1.2800000000 8.2800000000 5.7700000000 
H 1.6800000000 9.1500000000 6.1400000000 
H 0.4400000000 8.1700000000 6.2500000000 
O 8.3700000000 4.5100000000 1.3900000000 
H 7.9200000000 3.6400000000 1.3700000000 
H 9.2200000000 4.3200000000 0.9700000000 
O 0.2900000000 2.3200000000 2.5500000000 
H 1.1400000000 1.8400000000 2.6900000000 
H 9.6200000000 2.1600000000 3.3900000000 
O 1.1200000000 5.4900000000 4.4300000000 
H 1.3500000000 6.2700000000 5.0000000000 
H 1.7100000000 5.5900000000 3.7300000000 
O 5.6000000000 9.4600000000 8.0700000000 
H 6.2200000000 0.0800000000 7.4600000000 
H 4.9400000000 0.3600000000 8.2800000000 
O 3.3700000000 4.2600000000 2.3700000000 
H 3.6100000000 5.2500000000 2.3900000000 
H 4.2300000000 3.7600000000 2.3800000000 
O 6.6500000000 7.2100000000 3.3100000000 
H 6.7100000000 7.1800000000 2.3600000000 
H 5.6900000000 6.9300000000 3.3700000000 
O 3.7300000000 4.4800000000 8.3200000000 
H 4.5400000000 5.0100000000 8.2400000000 
H 3.1600000000 5.2100000000 8.6200000000 
O 8.0200000000 5.0900000000 4.0500000000 
H 7.5700000000 5.9500000000 3.8000000000 
H 8.3500000000 4.7600000000 3.1800000000 
O 7.5100000000 1.7200000000 1.5400000000 
H 8.1000000000 1.7500000000 2.3400000000 
H 8.0300000000 0.9800000000 1.1600000000 
O 9.1800000000 9.4900000000 0.9800000000 
H 9.8000000000 9.0200000000 1.6000000000 
H 8.8100000000 8.6200000000 0.6400000000 
O 0.3300000000 3.2100000000 5.8500000000 
H 1.3400000000 3.1200000000 5.9400000000 
H 0.3500000000 3.9000000000 5.1000000000 
O 2.6700000000 6.8200000000 9.1900000000 
H 3.5800000000 7.1700000000 8.9800000000 
H 2.2800000000 7.4200000000 9.8000000000 

