&CONTROL
/
&SYSTEM
   ntyp             = 2
   nat              = 96
   ibrav            = 0
/
&ELECTRONS
/
&IONS
/
&CELL
/

ATOMIC_SPECIES
O 15.999 None
H 1.008 None

K_POINTS gamma

CELL_PARAMETERS angstrom
9.86520000000000 0.00000000000000 0.00000000000000
0.00000000000000 9.86520000000000 0.00000000000000
0.00000000000000 0.00000000000000 9.86520000000000

ATOMIC_POSITIONS angstrom
O 9.0900000000 4.1200000000 7.2900000000 
H 9.2200000000 3.2700000000 6.8500000000 
H 8.2600000000 4.5100000000 6.9600000000 
O 2.5200000000 2.2300000000 9.3000000000 
H 2.9900000000 2.9900000000 9.5300000000 
H 1.5600000000 2.2800000000 9.5800000000 
O 0.4400000000 5.3400000000 4.1300000000 
H 9.3800000000 5.6100000000 4.2300000000 
H 0.3400000000 4.5200000000 3.7100000000 
O 5.0600000000 6.9500000000 4.0700000000 
H 4.5800000000 7.6400000000 4.6300000000 
H 4.3900000000 6.2800000000 3.7700000000 
O 1.7600000000 2.2600000000 3.1700000000 
H 2.3500000000 1.9300000000 2.4600000000 
H 2.3100000000 2.1800000000 3.9500000000 
O 2.3600000000 1.4300000000 6.4900000000 
H 2.4400000000 1.6100000000 7.5100000000 
H 1.3500000000 1.4300000000 6.3800000000 
O 9.3700000000 2.5800000000 0.5600000000 
H 8.4400000000 2.5000000000 0.1800000000 
H 9.1900000000 2.2200000000 1.4300000000 
O 6.8200000000 2.6800000000 9.2400000000 
H 6.8500000000 2.0700000000 8.4300000000 
H 6.2400000000 3.4300000000 8.9400000000 
O 4.0100000000 4.4600000000 9.6000000000 
H 4.4800000000 4.4900000000 0.6100000000 
H 3.3800000000 5.1800000000 9.6400000000 
O 0.5800000000 8.4300000000 8.2800000000 
H 0.7400000000 7.7700000000 7.5900000000 
H 1.3700000000 9.0100000000 8.3200000000 
O 1.4100000000 6.0400000000 6.5400000000 
H 1.3300000000 5.9200000000 5.5400000000 
H 1.0300000000 5.1800000000 6.8900000000 
O 9.3500000000 1.2500000000 6.3200000000 
H 8.8200000000 0.6500000000 6.9100000000 
H 8.8800000000 1.0900000000 5.4500000000 
O 4.5700000000 6.5000000000 7.1600000000 
H 4.1600000000 6.2500000000 7.9800000000 
H 3.8100000000 6.8600000000 6.6600000000 
O 6.5400000000 8.2300000000 6.6600000000 
H 7.1100000000 7.4900000000 6.3400000000 
H 5.8500000000 7.6700000000 6.9900000000 
O 4.1500000000 9.7800000000 8.6800000000 
H 4.9500000000 0.3300000000 8.2300000000 
H 3.6900000000 0.7500000000 9.0100000000 
O 3.1100000000 5.4800000000 2.9200000000 
H 2.4700000000 4.9600000000 3.5000000000 
H 2.5100000000 6.1000000000 2.4400000000 
O 9.5200000000 5.2600000000 9.6400000000 
H 9.5100000000 5.0800000000 8.6600000000 
H 9.3800000000 4.4000000000 0.2400000000 
O 4.7000000000 0.4200000000 3.4100000000 
H 4.0900000000 9.4400000000 3.2700000000 
H 5.3400000000 0.2500000000 2.6900000000 
O 3.4700000000 7.4500000000 9.8600000000 
H 2.8000000000 7.6100000000 0.6900000000 
H 3.8200000000 8.3300000000 9.6200000000 
O 8.1100000000 1.1500000000 3.9000000000 
H 8.0900000000 0.4200000000 3.2100000000 
H 7.7100000000 1.9800000000 3.4300000000 
O 6.8500000000 3.5800000000 2.9900000000 
H 5.9300000000 3.9100000000 3.2200000000 
H 7.0700000000 4.3900000000 2.5500000000 
O 7.6300000000 6.2700000000 4.5000000000 
H 6.7400000000 6.6500000000 4.3500000000 
H 7.3400000000 5.4600000000 4.9800000000 
O 1.2200000000 9.4400000000 4.0700000000 
H 0.7800000000 0.4500000000 4.2500000000 
H 0.4700000000 8.9400000000 3.6700000000 
O 6.1700000000 0.9300000000 7.3000000000 
H 6.1500000000 1.4300000000 6.4600000000 
H 6.2600000000 0.0400000000 6.9100000000 
O 1.2800000000 6.8700000000 1.5500000000 
H 0.5100000000 6.3300000000 1.2800000000 
H 0.7600000000 7.6600000000 1.8800000000 
O 6.6700000000 0.3000000000 1.4600000000 
H 6.9900000000 9.3700000000 0.9700000000 
H 6.5400000000 0.9900000000 0.7600000000 
O 4.6100000000 2.5100000000 5.0900000000 
H 4.6100000000 1.7100000000 4.4500000000 
H 3.8600000000 2.2000000000 5.6500000000 
O 8.3300000000 8.1700000000 0.0800000000 
H 7.8200000000 7.3200000000 0.1600000000 
H 9.0700000000 7.9100000000 9.3800000000 
O 6.3700000000 4.4800000000 6.5300000000 
H 5.7800000000 3.8200000000 6.0900000000 
H 5.5700000000 4.9600000000 6.9400000000 
O 3.4500000000 8.6700000000 5.5700000000 
H 2.6800000000 9.0800000000 5.0200000000 
H 3.5000000000 9.1800000000 6.4300000000 
O 9.0800000000 8.5700000000 2.6100000000 
H 8.4600000000 8.1100000000 3.3000000000 
H 8.6800000000 8.4500000000 1.7300000000 
O 5.7800000000 6.2800000000 1.3300000000 
H 5.6100000000 6.8600000000 2.1100000000 
H 4.9800000000 6.5400000000 0.7700000000 

