&CONTROL
/
&SYSTEM
   ntyp             = 2
   nat              = 96
   ibrav            = 0
/
&ELECTRONS
/
&IONS
/
&CELL
/

ATOMIC_SPECIES
O 15.999 None
H 1.008 None

K_POINTS gamma

CELL_PARAMETERS angstrom
9.86520000000000 0.00000000000000 0.00000000000000
0.00000000000000 9.86520000000000 0.00000000000000
0.00000000000000 0.00000000000000 9.86520000000000

ATOMIC_POSITIONS angstrom
O 0.5700000000 3.6900000000 7.0000000000 
H 0.1100000000 2.9600000000 6.5700000000 
H 9.6600000000 4.1900000000 7.3600000000 
O 9.5100000000 0.7900000000 3.1600000000 
H 9.2500000000 1.0900000000 4.0700000000 
H 0.3400000000 1.4200000000 2.9200000000 
O 3.5000000000 9.3700000000 9.2000000000 
H 3.0300000000 0.3900000000 9.3900000000 
H 4.0200000000 9.6500000000 8.4700000000 
O 3.2900000000 8.6100000000 6.0200000000 
H 3.6700000000 9.1800000000 5.3600000000 
H 2.8400000000 9.3100000000 6.5800000000 
O 6.2000000000 1.4500000000 5.1500000000 
H 5.9300000000 0.6500000000 4.6900000000 
H 5.3600000000 1.6600000000 5.7100000000 
O 3.2200000000 8.5600000000 2.0900000000 
H 3.0400000000 9.0800000000 1.2600000000 
H 2.3400000000 8.1900000000 2.4400000000 
O 5.4400000000 3.3200000000 9.2400000000 
H 4.7600000000 3.6500000000 8.5900000000 
H 5.1100000000 3.5700000000 0.1900000000 
O 9.0900000000 7.2800000000 5.0400000000 
H 8.3400000000 6.8900000000 5.4100000000 
H 9.1800000000 8.0700000000 5.5900000000 
O 1.8400000000 6.3700000000 4.9800000000 
H 2.4600000000 7.0000000000 5.4000000000 
H 0.9300000000 6.7700000000 5.0300000000 
O 7.0900000000 0.0900000000 1.1900000000 
H 6.2900000000 9.4200000000 1.4300000000 
H 7.4200000000 0.3600000000 2.0600000000 
O 8.2100000000 4.5800000000 1.4400000000 
H 8.9100000000 4.9500000000 2.0000000000 
H 7.6500000000 4.1700000000 2.1100000000 
O 3.6800000000 3.8700000000 4.5500000000 
H 4.4400000000 3.5800000000 5.0200000000 
H 3.3000000000 4.5400000000 5.1600000000 
O 6.7600000000 3.6500000000 3.3700000000 
H 6.6600000000 2.8500000000 3.9200000000 
H 6.8000000000 4.4300000000 4.0300000000 
O 7.2400000000 4.4900000000 6.0300000000 
H 7.4500000000 4.3500000000 7.0300000000 
H 6.7100000000 5.3500000000 6.0100000000 
O 0.4300000000 7.9900000000 2.4000000000 
H 0.0900000000 8.8100000000 2.8600000000 
H 9.5800000000 7.7500000000 1.7700000000 
O 6.2700000000 7.1100000000 6.0800000000 
H 5.5800000000 7.0600000000 6.7400000000 
H 6.5300000000 8.0200000000 6.1000000000 
O 4.4300000000 6.8400000000 8.4300000000 
H 5.1200000000 7.0400000000 9.0700000000 
H 3.7000000000 7.5200000000 8.6000000000 
O 2.2700000000 1.9600000000 9.2700000000 
H 2.1000000000 2.6500000000 8.5500000000 
H 1.5900000000 2.1400000000 0.1000000000 
O 1.7000000000 2.5700000000 2.8700000000 
H 2.2500000000 2.8800000000 3.5700000000 
H 1.0100000000 3.2400000000 2.8900000000 
O 1.3300000000 0.5700000000 7.0100000000 
H 1.0500000000 0.3100000000 7.9200000000 
H 0.4200000000 0.6200000000 6.6200000000 
O 4.7100000000 4.5900000000 1.7700000000 
H 5.5400000000 4.3100000000 2.1800000000 
H 4.1100000000 4.0800000000 2.2900000000 
O 5.4600000000 7.3100000000 1.3900000000 
H 5.2400000000 6.3600000000 1.2000000000 
H 4.6000000000 7.7100000000 1.5200000000 
O 8.2000000000 4.2000000000 8.5800000000 
H 8.7000000000 4.4000000000 9.4500000000 
H 7.3600000000 3.6700000000 8.8400000000 
O 8.2500000000 9.1900000000 7.0200000000 
H 7.4400000000 9.6700000000 7.3300000000 
H 8.8500000000 9.2800000000 7.8000000000 
O 9.6500000000 9.4100000000 9.5300000000 
H 0.1000000000 9.7900000000 0.5200000000 
H 9.1000000000 8.6500000000 9.7800000000 
O 0.6900000000 5.2100000000 2.6700000000 
H 1.0700000000 5.3400000000 3.5600000000 
H 0.5800000000 6.1600000000 2.5300000000 
O 6.3500000000 0.6700000000 8.3200000000 
H 6.8700000000 0.4500000000 9.1100000000 
H 6.1200000000 1.5800000000 8.4400000000 
O 8.2000000000 7.2100000000 0.7700000000 
H 8.0000000000 6.2600000000 0.8300000000 
H 7.3400000000 7.7200000000 0.9500000000 
O 3.2500000000 4.3100000000 7.6100000000 
H 3.4500000000 5.2400000000 7.7900000000 
H 2.2900000000 4.3300000000 7.4000000000 
O 5.2900000000 9.1100000000 3.7300000000 
H 5.7300000000 8.2900000000 3.8100000000 
H 4.5200000000 8.8100000000 3.1700000000 
O 8.8600000000 1.5900000000 5.6000000000 
H 8.0700000000 2.1300000000 5.3400000000 
H 8.4000000000 0.7800000000 6.0600000000 
O 3.8800000000 1.7500000000 6.7100000000 
H 3.9400000000 2.5800000000 7.1600000000 
H 2.9100000000 1.6000000000 6.7100000000 

