&CONTROL
/
&SYSTEM
   ntyp             = 2
   nat              = 96
   ibrav            = 0
/
&ELECTRONS
/
&IONS
/
&CELL
/

ATOMIC_SPECIES
O 15.999 None
H 1.008 None

K_POINTS gamma

CELL_PARAMETERS angstrom
9.86520000000000 0.00000000000000 0.00000000000000
0.00000000000000 9.86520000000000 0.00000000000000
0.00000000000000 0.00000000000000 9.86520000000000

ATOMIC_POSITIONS angstrom
O 9.0900000000 7.4600000000 1.3300000000 
H 9.3200000000 7.8700000000 0.4400000000 
H 9.6700000000 6.6400000000 1.1600000000 
O 7.3100000000 0.6500000000 1.6100000000 
H 7.7000000000 1.5200000000 1.1900000000 
H 6.7000000000 1.0100000000 2.2300000000 
O 5.5500000000 8.3700000000 1.0300000000 
H 6.3900000000 8.8500000000 1.1400000000 
H 4.8000000000 9.0100000000 0.7400000000 
O 2.8300000000 6.6700000000 3.4200000000 
H 2.8900000000 6.6900000000 2.4700000000 
H 3.1800000000 5.7400000000 3.6200000000 
O 5.1400000000 4.8100000000 9.4400000000 
H 5.9700000000 5.2700000000 9.5900000000 
H 5.2300000000 4.7500000000 8.4400000000 
O 3.2300000000 2.1000000000 4.4600000000 
H 3.2500000000 1.6700000000 5.3400000000 
H 2.8100000000 1.4300000000 3.8700000000 
O 5.6800000000 9.4200000000 5.1900000000 
H 5.6400000000 8.5800000000 4.7100000000 
H 6.5300000000 9.3300000000 5.6700000000 
O 5.6300000000 4.4600000000 6.3600000000 
H 6.3200000000 5.1700000000 6.3200000000 
H 6.0500000000 3.6600000000 5.9300000000 
O 8.2300000000 3.0200000000 0.3300000000 
H 7.9400000000 3.9200000000 0.6200000000 
H 8.9900000000 3.1900000000 9.6000000000 
O 9.5600000000 8.4200000000 8.6200000000 
H 9.1100000000 8.7200000000 7.8300000000 
H 0.5500000000 8.0900000000 8.2800000000 
O 2.7200000000 8.2300000000 8.6300000000 
H 2.7300000000 9.0100000000 9.2900000000 
H 2.9000000000 7.4900000000 9.2100000000 
O 3.6200000000 0.6100000000 6.6100000000 
H 3.5300000000 0.0400000000 7.4300000000 
H 4.3400000000 0.0600000000 6.0800000000 
O 8.1700000000 8.5200000000 3.3800000000 
H 8.7400000000 8.0500000000 2.7300000000 
H 7.7900000000 9.0900000000 2.6900000000 
O 4.1900000000 4.3400000000 3.4200000000 
H 3.7400000000 3.5300000000 3.7900000000 
H 4.9100000000 4.3900000000 4.0600000000 
O 1.6100000000 0.1300000000 3.4000000000 
H 0.7400000000 9.8000000000 2.9100000000 
H 1.8800000000 9.1500000000 3.8400000000 
O 0.4700000000 4.3400000000 3.2400000000 
H 0.8600000000 4.6200000000 2.3500000000 
H 0.7100000000 3.4100000000 3.4700000000 
O 4.7000000000 2.6000000000 1.3700000000 
H 4.4500000000 3.3100000000 2.0000000000 
H 5.1000000000 3.2100000000 0.6800000000 
O 1.7200000000 8.1000000000 5.3800000000 
H 2.2700000000 7.6300000000 4.6600000000 
H 2.3500000000 8.2100000000 6.1700000000 
O 3.0700000000 3.4500000000 7.1400000000 
H 3.9500000000 3.8800000000 6.9000000000 
H 3.1800000000 2.4400000000 7.0900000000 
O 0.5100000000 0.8200000000 0.3300000000 
H 9.6200000000 1.4000000000 0.1900000000 
H 0.3900000000 0.0400000000 9.6000000000 
O 7.5200000000 4.4900000000 3.5900000000 
H 7.1600000000 3.6800000000 4.0300000000 
H 8.5100000000 4.6200000000 3.8100000000 
O 3.3900000000 0.4300000000 0.5700000000 
H 2.4900000000 0.7800000000 0.5100000000 
H 3.7600000000 1.1500000000 1.1900000000 
O 0.9700000000 5.4300000000 0.6400000000 
H 0.9100000000 4.9000000000 9.6700000000 
H 1.8900000000 5.7900000000 0.5100000000 
O 8.6200000000 2.1800000000 6.2000000000 
H 9.1300000000 1.3200000000 6.1400000000 
H 9.0600000000 2.6500000000 7.0200000000 
O 5.7400000000 6.8300000000 4.2300000000 
H 6.4400000000 6.4300000000 3.8000000000 
H 4.9600000000 6.4500000000 3.8500000000 
O 3.5000000000 6.5100000000 0.6400000000 
H 4.1800000000 7.1500000000 0.8800000000 
H 4.0100000000 5.6900000000 0.4800000000 
O 0.4700000000 5.5800000000 5.6500000000 
H 0.6500000000 5.1900000000 4.8000000000 
H 0.9100000000 6.4500000000 5.5200000000 
O 9.2300000000 9.0600000000 6.1100000000 
H 8.6100000000 8.9100000000 5.2800000000 
H 0.3000000000 8.8200000000 5.8300000000 
O 0.4700000000 3.9400000000 7.9700000000 
H 0.1700000000 4.4000000000 7.1100000000 
H 1.3800000000 3.6500000000 7.6600000000 
O 6.3500000000 2.3400000000 4.6400000000 
H 7.1400000000 2.0400000000 5.2400000000 
H 5.8600000000 1.5600000000 4.3600000000 
O 7.3400000000 5.4400000000 1.0800000000 
H 7.3300000000 5.1000000000 2.0400000000 
H 7.5300000000 6.4000000000 1.2200000000 
O 7.8300000000 6.3700000000 7.2100000000 
H 8.5000000000 6.5300000000 7.9500000000 
H 8.4100000000 6.1900000000 6.4200000000 

