&CONTROL
/
&SYSTEM
   ntyp             = 2
   nat              = 96
   ibrav            = 0
/
&ELECTRONS
/
&IONS
/
&CELL
/

ATOMIC_SPECIES
O 15.999 None
H 1.008 None

K_POINTS gamma

CELL_PARAMETERS angstrom
9.86520000000000 0.00000000000000 0.00000000000000
0.00000000000000 9.86520000000000 0.00000000000000
0.00000000000000 0.00000000000000 9.86520000000000

ATOMIC_POSITIONS angstrom
O 1.3500000000 0.5800000000 9.7400000000 
H 1.6700000000 1.3400000000 0.3500000000 
H 0.5100000000 0.4100000000 0.3200000000 
O 0.7400000000 8.3000000000 3.0000000000 
H 1.7000000000 8.2500000000 2.6900000000 
H 0.5200000000 9.2200000000 3.0200000000 
O 1.1600000000 7.7000000000 8.9100000000 
H 0.6300000000 8.4200000000 9.3200000000 
H 0.9500000000 7.8600000000 7.9500000000 
O 5.6700000000 1.1700000000 4.4300000000 
H 4.7800000000 0.9100000000 4.0700000000 
H 5.3700000000 1.4500000000 5.3500000000 
O 5.4000000000 6.4500000000 1.5500000000 
H 5.4100000000 6.0600000000 2.4700000000 
H 4.5300000000 6.1500000000 1.2900000000 
O 3.2200000000 1.2900000000 2.8900000000 
H 3.2200000000 1.7600000000 2.0100000000 
H 2.9100000000 1.9900000000 3.4800000000 
O 4.1600000000 5.5500000000 8.1000000000 
H 3.7000000000 4.9800000000 7.4600000000 
H 4.1000000000 4.9600000000 8.9200000000 
O 0.4600000000 2.3400000000 6.3300000000 
H 9.6000000000 1.7800000000 6.7100000000 
H 0.1600000000 2.3900000000 5.4400000000 
O 0.1700000000 5.5900000000 0.4600000000 
H 0.6900000000 6.4000000000 0.1500000000 
H 9.1200000000 6.0700000000 0.3800000000 
O 8.6300000000 0.5100000000 1.1400000000 
H 9.0500000000 1.3800000000 1.1700000000 
H 8.1800000000 0.3600000000 2.0300000000 
O 0.1500000000 2.9100000000 1.5400000000 
H 0.0200000000 3.8400000000 1.2400000000 
H 9.5100000000 3.0400000000 2.3400000000 
O 5.0100000000 7.4200000000 4.0700000000 
H 4.6100000000 8.1700000000 4.5300000000 
H 4.6800000000 7.5200000000 3.1600000000 
O 9.1100000000 3.4100000000 4.0800000000 
H 9.2800000000 4.3600000000 4.0900000000 
H 8.1300000000 3.3600000000 3.7500000000 
O 6.3900000000 4.0500000000 3.4300000000 
H 6.0500000000 4.2300000000 4.3200000000 
H 5.7400000000 3.2900000000 3.1700000000 
O 9.2400000000 6.0600000000 3.9100000000 
H 9.6700000000 6.9500000000 3.5800000000 
H 8.3800000000 6.3900000000 4.2900000000 
O 7.2800000000 7.1900000000 5.4500000000 
H 7.0600000000 7.5300000000 6.3600000000 
H 6.3900000000 7.1400000000 5.0000000000 
O 6.6600000000 8.0500000000 8.1600000000 
H 7.0700000000 7.7700000000 9.0700000000 
H 5.7100000000 8.1200000000 8.3000000000 
O 3.6000000000 2.9400000000 0.3700000000 
H 3.0500000000 2.9700000000 9.4000000000 
H 3.2800000000 3.7500000000 0.8500000000 
O 2.9100000000 3.4900000000 4.4400000000 
H 2.2600000000 3.4400000000 5.1700000000 
H 2.7800000000 4.4500000000 4.1600000000 
O 2.7200000000 8.3500000000 6.3100000000 
H 2.8200000000 9.3100000000 6.4500000000 
H 1.7800000000 8.2500000000 6.1200000000 
O 2.6500000000 5.3400000000 1.6900000000 
H 1.8000000000 5.3300000000 1.3200000000 
H 2.5700000000 5.8400000000 2.5100000000 
O 3.8500000000 8.2000000000 9.0000000000 
H 3.8600000000 7.3200000000 8.5000000000 
H 2.9000000000 8.4100000000 8.8900000000 
O 6.2500000000 4.3000000000 6.1800000000 
H 5.7800000000 4.9300000000 6.7500000000 
H 6.3500000000 3.5500000000 6.7600000000 
O 8.1500000000 0.3900000000 6.9000000000 
H 7.2800000000 0.4800000000 6.3700000000 
H 7.8000000000 9.6900000000 7.5800000000 
O 7.7800000000 7.6700000000 0.6500000000 
H 7.9100000000 8.5800000000 0.9600000000 
H 6.8900000000 7.4600000000 1.0400000000 
O 2.3000000000 6.0000000000 4.3400000000 
H 2.7500000000 6.3600000000 5.1700000000 
H 1.3100000000 6.2400000000 4.5500000000 
O 5.5300000000 1.5600000000 7.2000000000 
H 5.7600000000 1.4800000000 8.1400000000 
H 4.5200000000 1.3900000000 7.2200000000 
O 3.3300000000 8.4200000000 2.0200000000 
H 3.5300000000 8.4900000000 0.9900000000 
H 3.3800000000 9.3900000000 2.2800000000 
O 1.6600000000 3.7200000000 8.3600000000 
H 1.1600000000 3.3200000000 7.5500000000 
H 0.9400000000 4.1600000000 8.8800000000 
O 7.5800000000 9.3700000000 3.3200000000 
H 7.0600000000 0.1200000000 3.9500000000 
H 7.3700000000 8.5300000000 3.7800000000 
O 0.0900000000 7.9500000000 6.4100000000 
H 9.6100000000 8.8100000000 6.4000000000 
H 9.2000000000 7.4500000000 6.0300000000 
O 2.9800000000 1.2000000000 7.3600000000 
H 2.4100000000 1.1200000000 8.1700000000 
H 2.4800000000 1.9000000000 6.8600000000 

