&CONTROL
/
&SYSTEM
   ntyp             = 2
   nat              = 96
   ibrav            = 0
/
&ELECTRONS
/
&IONS
/
&CELL
/

ATOMIC_SPECIES
O 15.999 None
H 1.008 None

K_POINTS gamma

CELL_PARAMETERS angstrom
9.86520000000000 0.00000000000000 0.00000000000000
0.00000000000000 9.86520000000000 0.00000000000000
0.00000000000000 0.00000000000000 9.86520000000000

ATOMIC_POSITIONS angstrom
O 0.1200000000 1.5000000000 5.8000000000 
H 9.7300000000 2.3600000000 6.2100000000 
H 0.3400000000 1.8300000000 4.8600000000 
O 0.8000000000 6.1400000000 9.2000000000 
H 1.3900000000 6.2100000000 8.4100000000 
H 9.8300000000 5.7600000000 8.7100000000 
O 3.8900000000 3.7700000000 8.1700000000 
H 4.1500000000 4.6700000000 7.8600000000 
H 3.1400000000 3.5100000000 7.5900000000 
O 6.2300000000 7.6100000000 9.6200000000 
H 6.5500000000 7.1400000000 0.6100000000 
H 5.7400000000 8.3500000000 0.2100000000 
O 7.5800000000 3.1000000000 0.5700000000 
H 8.5900000000 3.2900000000 0.6100000000 
H 7.5700000000 2.0900000000 0.7300000000 
O 4.4300000000 0.4500000000 8.3600000000 
H 3.8700000000 9.6700000000 7.8000000000 
H 4.8300000000 9.8000000000 9.1300000000 
O 7.1500000000 5.6900000000 1.5100000000 
H 6.8300000000 4.7500000000 1.3200000000 
H 7.7600000000 5.5000000000 2.2300000000 
O 9.6700000000 8.5600000000 6.4600000000 
H 9.7400000000 9.4000000000 5.9600000000 
H 9.1400000000 8.8500000000 7.2300000000 
O 0.3900000000 3.2900000000 0.3700000000 
H 0.6500000000 2.6800000000 9.4900000000 
H 1.0700000000 3.9600000000 0.3800000000 
O 5.1700000000 9.5200000000 1.5100000000 
H 5.6500000000 9.4900000000 2.3800000000 
H 4.3400000000 0.1900000000 1.6100000000 
O 0.6100000000 7.5300000000 1.7200000000 
H 0.9500000000 8.3900000000 1.4000000000 
H 0.5100000000 7.0400000000 0.8800000000 
O 6.2500000000 7.9100000000 5.3400000000 
H 6.3000000000 6.9400000000 5.1500000000 
H 7.0400000000 8.0000000000 6.0300000000 
O 6.4800000000 0.2200000000 3.7400000000 
H 6.4200000000 9.1800000000 4.2600000000 
H 6.2100000000 0.8500000000 4.5000000000 
O 2.9700000000 3.3500000000 5.4500000000 
H 3.8600000000 2.9000000000 5.6400000000 
H 3.2600000000 3.9800000000 4.7800000000 
O 8.4700000000 0.4700000000 1.6700000000 
H 9.0400000000 9.6000000000 1.7800000000 
H 7.7900000000 0.3100000000 2.3700000000 
O 0.3300000000 4.0300000000 6.7400000000 
H 1.2500000000 3.9500000000 6.3200000000 
H 0.3100000000 4.9400000000 7.1000000000 
O 4.9600000000 3.3300000000 1.1600000000 
H 4.5100000000 3.4400000000 0.2700000000 
H 5.8800000000 3.1000000000 0.8300000000 
O 3.3400000000 9.1500000000 6.0900000000 
H 3.0400000000 8.5100000000 5.2900000000 
H 3.8500000000 0.0200000000 5.6000000000 
O 1.7100000000 1.5100000000 8.2800000000 
H 2.6800000000 1.5200000000 8.2700000000 
H 1.4200000000 1.3000000000 7.3500000000 
O 8.4700000000 9.2700000000 8.7800000000 
H 8.0400000000 8.5100000000 9.3300000000 
H 8.6300000000 0.1000000000 9.4400000000 
O 8.0400000000 5.5100000000 8.5700000000 
H 7.2100000000 5.9900000000 8.8400000000 
H 8.3600000000 5.1000000000 9.4300000000 
O 0.5900000000 2.3100000000 3.3800000000 
H 0.2200000000 1.6500000000 2.7500000000 
H 0.2300000000 3.1500000000 3.0400000000 
O 2.5700000000 7.3000000000 4.0700000000 
H 1.9900000000 7.4400000000 3.3300000000 
H 3.2400000000 6.7700000000 3.6000000000 
O 7.3900000000 3.6400000000 6.6600000000 
H 8.3100000000 3.5800000000 6.9800000000 
H 7.0900000000 4.3000000000 7.3400000000 
O 4.3800000000 5.2600000000 3.3300000000 
H 5.3200000000 5.3200000000 3.5000000000 
H 4.5000000000 4.7000000000 2.4600000000 
O 1.6800000000 0.2200000000 0.6900000000 
H 1.6700000000 0.6000000000 9.6200000000 
H 2.3000000000 0.8000000000 1.2300000000 
O 5.3900000000 1.7300000000 5.8200000000 
H 5.0000000000 1.5000000000 6.6900000000 
H 6.0600000000 2.4400000000 6.0600000000 
O 9.4600000000 5.4400000000 3.4600000000 
H 9.8100000000 6.1300000000 2.8300000000 
H 0.2400000000 5.2300000000 4.1600000000 
O 1.5300000000 6.5200000000 6.5200000000 
H 2.0100000000 6.7600000000 5.7400000000 
H 1.0100000000 7.3600000000 6.6200000000 
O 3.2400000000 1.5300000000 2.3200000000 
H 3.9100000000 2.2300000000 2.1200000000 
H 2.6000000000 2.0100000000 2.9000000000 
O 7.1400000000 5.4500000000 4.6200000000 
H 8.0200000000 5.4500000000 4.1000000000 
H 7.4200000000 4.7800000000 5.3200000000 
O 4.6000000000 6.2600000000 7.1100000000 
H 4.5700000000 7.1200000000 7.5400000000 
H 4.5700000000 6.5900000000 6.2000000000 

