&CONTROL
/
&SYSTEM
   ntyp             = 2
   nat              = 96
   ibrav            = 0
/
&ELECTRONS
/
&IONS
/
&CELL
/

ATOMIC_SPECIES
O 15.999 None
H 1.008 None

K_POINTS gamma

CELL_PARAMETERS angstrom
9.86520000000000 0.00000000000000 0.00000000000000
0.00000000000000 9.86520000000000 0.00000000000000
0.00000000000000 0.00000000000000 9.86520000000000

ATOMIC_POSITIONS angstrom
O 9.2000000000 7.7600000000 4.6000000000 
H 8.2700000000 8.0000000000 4.3100000000 
H 9.1500000000 6.7400000000 4.4700000000 
O 3.4900000000 0.4500000000 7.4600000000 
H 2.9400000000 0.1900000000 8.2500000000 
H 2.7900000000 0.3100000000 6.7500000000 
O 1.3700000000 0.3200000000 9.5800000000 
H 0.8400000000 1.0400000000 9.1900000000 
H 0.7200000000 9.5400000000 9.3000000000 
O 6.5500000000 7.6800000000 3.6100000000 
H 6.8200000000 7.9900000000 2.6900000000 
H 5.5200000000 7.8800000000 3.6900000000 
O 4.8700000000 2.2600000000 9.5900000000 
H 4.5100000000 1.7600000000 0.4700000000 
H 4.5800000000 1.7200000000 8.8500000000 
O 0.7500000000 1.8000000000 3.1900000000 
H 1.1800000000 2.2600000000 2.5000000000 
H 9.8500000000 1.4600000000 2.7600000000 
O 1.2400000000 3.9400000000 1.3900000000 
H 1.9700000000 4.2300000000 0.8100000000 
H 0.5100000000 4.4600000000 1.0300000000 
O 7.3700000000 1.6800000000 5.2900000000 
H 6.9000000000 0.8700000000 5.5600000000 
H 6.6500000000 2.3500000000 5.2100000000 
O 2.4200000000 5.1700000000 3.6000000000 
H 2.1200000000 4.6800000000 2.8100000000 
H 3.3400000000 5.5500000000 3.3400000000 
O 2.7700000000 4.3700000000 7.4100000000 
H 2.0300000000 4.9100000000 7.1600000000 
H 2.4000000000 3.7200000000 8.1200000000 
O 5.3800000000 5.4200000000 2.4500000000 
H 5.7400000000 6.1500000000 3.0400000000 
H 6.0700000000 4.7600000000 2.7900000000 
O 3.5200000000 5.0000000000 0.1400000000 
H 3.8800000000 4.4700000000 9.2300000000 
H 4.3200000000 5.0000000000 0.7800000000 
O 9.0900000000 5.1100000000 4.0100000000 
H 8.4400000000 4.5000000000 3.5500000000 
H 0.1200000000 4.6800000000 3.9800000000 
O 7.2100000000 4.6000000000 6.7600000000 
H 6.6100000000 4.0700000000 6.2300000000 
H 7.9600000000 4.8100000000 6.1900000000 
O 7.1300000000 3.6600000000 9.3600000000 
H 7.2800000000 3.9100000000 8.4100000000 
H 6.3300000000 3.1200000000 9.3500000000 
O 6.0700000000 9.4700000000 6.3600000000 
H 5.9000000000 8.7500000000 5.7400000000 
H 5.1500000000 9.6900000000 6.6000000000 
O 4.6000000000 6.3700000000 6.7400000000 
H 5.4800000000 6.0600000000 6.6500000000 
H 3.9700000000 5.6300000000 6.8500000000 
O 4.9300000000 3.4100000000 5.3500000000 
H 4.2100000000 3.6900000000 5.9900000000 
H 4.6000000000 2.5800000000 4.9600000000 
O 1.3700000000 6.2100000000 5.7300000000 
H 0.7100000000 6.6400000000 5.2200000000 
H 1.8800000000 5.7600000000 5.0200000000 
O 3.4600000000 0.1200000000 1.4100000000 
H 3.6900000000 9.1200000000 0.9700000000 
H 2.6000000000 0.3200000000 0.8800000000 
O 0.1600000000 2.0800000000 5.9800000000 
H 9.1400000000 1.7900000000 5.7000000000 
H 0.7400000000 2.1100000000 5.1000000000 
O 4.1400000000 7.9900000000 4.5300000000 
H 4.1800000000 7.4600000000 5.3200000000 
H 3.4400000000 8.6700000000 4.7800000000 
O 9.1000000000 5.5300000000 9.8600000000 
H 9.0000000000 6.4200000000 0.3300000000 
H 8.1800000000 5.2100000000 9.7100000000 
O 1.3300000000 9.5300000000 5.2100000000 
H 0.8200000000 8.6800000000 5.2700000000 
H 0.9500000000 9.7600000000 4.3200000000 
O 8.0700000000 0.8900000000 2.4900000000 
H 7.8100000000 0.0000000000 2.1000000000 
H 7.8700000000 0.9100000000 3.4300000000 
O 0.5200000000 7.6800000000 8.1200000000 
H 0.3100000000 6.7700000000 8.3800000000 
H 1.3200000000 7.4300000000 7.6300000000 
O 7.8100000000 8.4600000000 8.4200000000 
H 7.1900000000 8.7500000000 7.7100000000 
H 8.7100000000 8.4100000000 8.0200000000 
O 7.5100000000 3.5600000000 2.3000000000 
H 7.9000000000 2.6600000000 2.4300000000 
H 7.3800000000 3.5300000000 1.3100000000 
O 6.9900000000 8.5800000000 1.0700000000 
H 7.3100000000 8.7300000000 0.1800000000 
H 6.0400000000 8.4500000000 0.9000000000 
O 3.5300000000 1.3100000000 4.2600000000 
H 3.7100000000 1.3800000000 3.2900000000 
H 2.5200000000 1.2700000000 4.2900000000 
O 0.3700000000 3.0600000000 8.4300000000 
H 0.1000000000 2.7400000000 7.5100000000 
H 9.5500000000 3.6700000000 8.8500000000 
O 4.5600000000 7.9400000000 9.5400000000 
H 4.8000000000 7.6500000000 8.6000000000 
H 4.2900000000 7.1000000000 0.1100000000 

