&CONTROL
/
&SYSTEM
   ntyp             = 2
   nat              = 96
   ibrav            = 0
/
&ELECTRONS
/
&IONS
/
&CELL
/

ATOMIC_SPECIES
O 15.999 None
H 1.008 None

K_POINTS gamma

CELL_PARAMETERS angstrom
9.86520000000000 0.00000000000000 0.00000000000000
0.00000000000000 9.86520000000000 0.00000000000000
0.00000000000000 0.00000000000000 9.86520000000000

ATOMIC_POSITIONS angstrom
O 2.7300000000 5.6700000000 0.5200000000 
H 2.2900000000 4.9100000000 0.1100000000 
H 2.2200000000 5.6600000000 1.3700000000 
O 4.6700000000 8.3700000000 6.5000000000 
H 4.9900000000 9.3500000000 6.4000000000 
H 4.2400000000 8.2300000000 5.6400000000 
O 1.4000000000 5.5900000000 2.8100000000 
H 0.4800000000 5.9500000000 2.7200000000 
H 1.2900000000 4.6600000000 3.1000000000 
O 8.9400000000 7.5500000000 5.4000000000 
H 8.4800000000 7.6300000000 4.5200000000 
H 8.3700000000 6.9900000000 6.0300000000 
O 7.0400000000 2.2900000000 9.3300000000 
H 7.0200000000 2.8400000000 0.3000000000 
H 6.2200000000 2.3300000000 8.7100000000 
O 6.1400000000 3.3500000000 6.1000000000 
H 5.8500000000 2.6000000000 5.5100000000 
H 5.9200000000 2.9700000000 6.9700000000 
O 8.4200000000 4.4100000000 5.4400000000 
H 8.5400000000 4.4400000000 4.5200000000 
H 7.5100000000 3.9300000000 5.5900000000 
O 4.0500000000 8.6200000000 9.0700000000 
H 3.0400000000 8.4300000000 9.1200000000 
H 4.3000000000 8.2600000000 8.1300000000 
O 1.3400000000 8.2000000000 8.2000000000 
H 0.8000000000 7.6700000000 8.8000000000 
H 1.6100000000 7.4600000000 7.5500000000 
O 2.8800000000 7.7400000000 3.9600000000 
H 2.9500000000 8.5600000000 3.4300000000 
H 2.7300000000 7.0300000000 3.2900000000 
O 9.5800000000 1.6100000000 8.1500000000 
H 8.8400000000 1.9900000000 8.7600000000 
H 9.0500000000 1.0900000000 7.5700000000 
O 9.2700000000 2.4900000000 2.4000000000 
H 8.8300000000 1.6400000000 2.0700000000 
H 8.5200000000 3.0800000000 2.3900000000 
O 8.0100000000 0.1200000000 6.4600000000 
H 7.4400000000 0.3000000000 5.6400000000 
H 8.5300000000 9.1800000000 6.1200000000 
O 5.1900000000 5.0200000000 8.9300000000 
H 4.3400000000 5.3800000000 9.1600000000 
H 5.0700000000 4.7800000000 7.9700000000 
O 3.2300000000 9.4400000000 1.8400000000 
H 2.7100000000 0.2500000000 1.3900000000 
H 3.9500000000 9.1600000000 1.2000000000 
O 1.4900000000 6.4700000000 5.9300000000 
H 2.1100000000 6.8400000000 5.2600000000 
H 0.6300000000 6.8900000000 5.6800000000 
O 2.3600000000 0.8600000000 7.2600000000 
H 2.4500000000 9.7400000000 7.3700000000 
H 1.4200000000 1.0600000000 7.5100000000 
O 1.7500000000 3.4000000000 9.1300000000 
H 1.2200000000 4.1500000000 8.6200000000 
H 1.4100000000 2.5800000000 8.7100000000 
O 8.0500000000 0.2600000000 1.2700000000 
H 7.9400000000 9.2600000000 0.8600000000 
H 7.4900000000 0.9100000000 0.7300000000 
O 8.6900000000 5.9000000000 0.2800000000 
H 7.7500000000 6.1600000000 0.2500000000 
H 8.9100000000 5.5800000000 9.2600000000 
O 5.7100000000 1.1000000000 4.5000000000 
H 5.4700000000 0.4400000000 3.7600000000 
H 5.4000000000 1.8500000000 3.9600000000 
O 4.0000000000 3.1100000000 3.3000000000 
H 3.5500000000 2.9100000000 2.5100000000 
H 3.2200000000 3.2400000000 3.8900000000 
O 7.3100000000 8.6800000000 8.9000000000 
H 7.6800000000 9.2600000000 8.1800000000 
H 7.2300000000 7.7400000000 8.4900000000 
O 5.8100000000 7.3800000000 1.2700000000 
H 5.1600000000 6.6500000000 1.2400000000 
H 5.4700000000 7.8700000000 0.4800000000 
O 4.9400000000 1.4900000000 7.7100000000 
H 5.0700000000 0.8100000000 8.4300000000 
H 3.9800000000 1.3500000000 7.5100000000 
O 7.2800000000 8.3700000000 3.3700000000 
H 6.6200000000 7.9700000000 2.7200000000 
H 7.8500000000 8.9700000000 2.7900000000 
O 1.2500000000 3.1400000000 4.3000000000 
H 0.5200000000 3.3000000000 5.0200000000 
H 0.7500000000 2.6400000000 3.5600000000 
O 8.3700000000 5.3800000000 2.7300000000 
H 8.6900000000 5.5800000000 1.7700000000 
H 7.4200000000 5.1100000000 2.6400000000 
O 0.0100000000 5.1900000000 7.6000000000 
H 0.6700000000 5.6300000000 6.9700000000 
H 9.1900000000 4.8500000000 6.9300000000 
O 6.8200000000 6.4300000000 6.7500000000 
H 6.2100000000 7.0500000000 6.2800000000 
H 6.4500000000 5.5300000000 6.6100000000 
O 6.2000000000 3.8600000000 1.8400000000 
H 5.7300000000 3.9900000000 0.9900000000 
H 5.5200000000 3.5700000000 2.5000000000 
O 2.1600000000 2.0400000000 1.4500000000 
H 1.2600000000 1.9300000000 1.7900000000 
H 1.9800000000 2.5900000000 0.6400000000 

