&CONTROL
/
&SYSTEM
   ntyp             = 2
   nat              = 96
   ibrav            = 0
/
&ELECTRONS
/
&IONS
/
&CELL
/

ATOMIC_SPECIES
O 15.999 None
H 1.008 None

K_POINTS gamma

CELL_PARAMETERS angstrom
9.86520000000000 0.00000000000000 0.00000000000000
0.00000000000000 9.86520000000000 0.00000000000000
0.00000000000000 0.00000000000000 9.86520000000000

ATOMIC_POSITIONS angstrom
O 1.7100000000 5.3400000000 8.5300000000 
H 2.1700000000 4.9400000000 7.7800000000 
H 1.2600000000 6.1500000000 8.2300000000 
O 2.3100000000 4.4000000000 1.3300000000 
H 2.2300000000 4.8900000000 0.5200000000 
H 1.5300000000 4.7900000000 1.7300000000 
O 6.5200000000 0.4700000000 3.3600000000 
H 6.5300000000 0.0100000000 2.5000000000 
H 6.8200000000 9.7100000000 4.0900000000 
O 3.9800000000 0.6300000000 3.4800000000 
H 4.0000000000 9.7600000000 2.8800000000 
H 4.9500000000 0.7900000000 3.6000000000 
O 2.3700000000 8.7500000000 6.2800000000 
H 2.7900000000 8.5700000000 5.4400000000 
H 1.5700000000 9.2900000000 6.0900000000 
O 9.1200000000 2.8900000000 0.6400000000 
H 8.4000000000 2.9600000000 1.3600000000 
H 9.6200000000 3.6900000000 0.7800000000 
O 9.7700000000 9.6400000000 5.5100000000 
H 8.8800000000 0.0800000000 5.8300000000 
H 9.8100000000 0.2900000000 4.6900000000 
O 3.2500000000 7.7900000000 2.0700000000 
H 2.6300000000 8.2000000000 1.4600000000 
H 2.5700000000 7.4300000000 2.6500000000 
O 6.7300000000 3.2700000000 6.0400000000 
H 7.3400000000 3.4500000000 5.3800000000 
H 6.4200000000 4.1200000000 6.3000000000 
O 7.1100000000 3.1900000000 2.5400000000 
H 6.1900000000 3.3100000000 2.3900000000 
H 7.1000000000 2.3500000000 3.0200000000 
O 0.9900000000 6.7700000000 3.3700000000 
H 1.3200000000 6.4300000000 4.2100000000 
H 0.2200000000 6.1600000000 3.1800000000 
O 4.9000000000 7.4600000000 0.0500000000 
H 4.3000000000 7.3900000000 0.8600000000 
H 5.1600000000 6.5000000000 9.6700000000 
O 8.3000000000 6.4100000000 9.5600000000 
H 7.6800000000 6.3400000000 8.8000000000 
H 9.1400000000 6.6800000000 9.1000000000 
O 8.9900000000 5.2800000000 2.2600000000 
H 8.2300000000 4.7700000000 2.5800000000 
H 8.6400000000 5.5800000000 1.4000000000 
O 4.5900000000 3.3000000000 2.2800000000 
H 3.7700000000 3.8700000000 2.1800000000 
H 4.2900000000 2.5200000000 2.8100000000 
O 7.4600000000 7.7800000000 3.6100000000 
H 8.1300000000 7.2900000000 4.2200000000 
H 7.9400000000 7.8200000000 2.7700000000 
O 3.2000000000 4.6800000000 6.3200000000 
H 3.9700000000 5.3100000000 6.6200000000 
H 3.4100000000 3.7800000000 6.7300000000 
O 4.5700000000 2.3900000000 8.0200000000 
H 5.2900000000 2.4400000000 7.3800000000 
H 4.5200000000 1.4200000000 8.2700000000 
O 5.7300000000 5.7100000000 6.4200000000 
H 6.5600000000 6.2800000000 6.5100000000 
H 5.2900000000 6.1500000000 5.6100000000 
O 2.4100000000 1.6400000000 5.4100000000 
H 3.0300000000 1.6000000000 4.6000000000 
H 2.8900000000 1.0900000000 6.1300000000 
O 0.5700000000 5.4900000000 5.7500000000 
H 9.7900000000 4.7000000000 5.7800000000 
H 1.3900000000 5.0800000000 6.0700000000 
O 4.7900000000 7.3900000000 4.3900000000 
H 5.7400000000 7.5300000000 4.1500000000 
H 4.3300000000 7.3700000000 3.5000000000 
O 8.9400000000 8.5300000000 1.3100000000 
H 8.3300000000 9.2800000000 1.1300000000 
H 8.4900000000 7.7500000000 0.8100000000 
O 9.2700000000 1.2100000000 8.4700000000 
H 9.1100000000 1.8400000000 9.2000000000 
H 9.6500000000 0.4600000000 9.0200000000 
O 6.3500000000 9.4500000000 0.7700000000 
H 6.0100000000 0.3000000000 0.1600000000 
H 5.7300000000 8.7000000000 0.6200000000 
O 0.7800000000 7.8600000000 8.3800000000 
H 1.1000000000 8.4200000000 9.1500000000 
H 1.3500000000 8.1900000000 7.6700000000 
O 8.1500000000 7.2900000000 6.5500000000 
H 8.9900000000 6.9600000000 6.2000000000 
H 8.4600000000 8.0500000000 6.8800000000 
O 4.3000000000 9.4600000000 8.1100000000 
H 4.5800000000 8.5800000000 8.4000000000 
H 3.5700000000 9.3400000000 7.5100000000 
O 1.3500000000 9.4200000000 0.6500000000 
H 0.5300000000 9.0500000000 1.0600000000 
H 1.3500000000 0.4800000000 0.8400000000 
O 5.2100000000 4.6500000000 9.5600000000 
H 5.1500000000 3.9500000000 8.8400000000 
H 5.0500000000 4.1000000000 0.4900000000 
O 7.4400000000 0.5400000000 6.5300000000 
H 6.8700000000 1.2900000000 6.3200000000 
H 8.0200000000 0.8600000000 7.2700000000 
O 9.8000000000 3.0300000000 6.0600000000 
H 0.7400000000 2.4300000000 5.8700000000 
H 9.4600000000 2.5600000000 6.8700000000 

