&CONTROL
/
&SYSTEM
   ntyp             = 2
   nat              = 96
   ibrav            = 0
/
&ELECTRONS
/
&IONS
/
&CELL
/

ATOMIC_SPECIES
O 15.999 None
H 1.008 None

K_POINTS gamma

CELL_PARAMETERS angstrom
9.86520000000000 0.00000000000000 0.00000000000000
0.00000000000000 9.86520000000000 0.00000000000000
0.00000000000000 0.00000000000000 9.86520000000000

ATOMIC_POSITIONS angstrom
O 3.3800000000 4.1500000000 4.5700000000 
H 4.1200000000 3.4900000000 4.8300000000 
H 3.6400000000 4.7700000000 5.2700000000 
O 4.4600000000 9.4400000000 5.3800000000 
H 4.8100000000 8.5600000000 5.6200000000 
H 4.8600000000 0.0900000000 6.1700000000 
O 5.3500000000 6.5400000000 2.3900000000 
H 5.9400000000 6.5400000000 3.2800000000 
H 5.6200000000 5.6500000000 2.0500000000 
O 8.3300000000 0.5400000000 9.4800000000 
H 9.2400000000 0.8100000000 9.2500000000 
H 7.8100000000 1.3500000000 9.6700000000 
O 3.4600000000 6.3400000000 9.2600000000 
H 4.0600000000 7.0400000000 9.6700000000 
H 3.5200000000 5.6100000000 0.0100000000 
O 7.3800000000 3.1500000000 7.6700000000 
H 7.7300000000 2.4800000000 7.0100000000 
H 7.8300000000 3.9800000000 7.3800000000 
O 1.6400000000 9.4800000000 6.9900000000 
H 2.4600000000 9.6000000000 6.5100000000 
H 1.0000000000 9.8600000000 6.4300000000 
O 5.4600000000 8.3000000000 0.4200000000 
H 4.9000000000 8.7300000000 1.1300000000 
H 5.7500000000 7.5700000000 1.0400000000 
O 7.9900000000 1.7800000000 5.3600000000 
H 8.2600000000 2.1800000000 4.5200000000 
H 8.4000000000 0.8900000000 5.2400000000 
O 3.3300000000 6.0300000000 6.3900000000 
H 4.1000000000 6.5900000000 6.1500000000 
H 3.3200000000 6.1800000000 7.4000000000 
O 3.6000000000 0.2900000000 1.1600000000 
H 2.7300000000 0.6000000000 0.7800000000 
H 4.3400000000 0.3000000000 0.4700000000 
O 3.0700000000 2.8200000000 8.6900000000 
H 3.1000000000 3.2700000000 9.5700000000 
H 2.2900000000 3.3300000000 8.3600000000 
O 8.3700000000 5.7100000000 7.6300000000 
H 7.8500000000 6.5000000000 7.9700000000 
H 9.0200000000 6.0800000000 7.0000000000 
O 8.5700000000 8.5900000000 1.9700000000 
H 8.1900000000 9.0300000000 1.1900000000 
H 9.3000000000 8.1300000000 1.5300000000 
O 7.3700000000 8.1700000000 8.1700000000 
H 6.4600000000 8.0300000000 8.6000000000 
H 7.5800000000 9.0800000000 8.4400000000 
O 5.5000000000 2.7200000000 5.1800000000 
H 6.3000000000 2.3400000000 5.0600000000 
H 5.2800000000 2.4100000000 6.0500000000 
O 5.8300000000 7.1900000000 5.9200000000 
H 6.4300000000 7.0600000000 5.1300000000 
H 6.5400000000 7.0600000000 6.5900000000 
O 0.8600000000 4.2000000000 8.2800000000 
H 0.0200000000 4.4800000000 7.9200000000 
H 0.4200000000 3.8600000000 9.1000000000 
O 9.2800000000 4.8400000000 0.7800000000 
H 9.3100000000 5.7600000000 0.4600000000 
H 8.2700000000 4.6800000000 0.6100000000 
O 5.1700000000 1.4100000000 7.4800000000 
H 4.4900000000 1.7300000000 8.1000000000 
H 5.9000000000 1.9100000000 7.8000000000 
O 8.4500000000 2.5500000000 2.4900000000 
H 8.9600000000 3.3600000000 2.6700000000 
H 9.1500000000 1.8900000000 2.5100000000 
O 0.5700000000 6.5100000000 6.1800000000 
H 1.2700000000 5.8200000000 6.4100000000 
H 1.0600000000 7.3800000000 6.2200000000 
O 3.1300000000 3.8700000000 1.5900000000 
H 3.8700000000 3.4000000000 2.0500000000 
H 2.7700000000 4.3700000000 2.3300000000 
O 5.7400000000 2.7700000000 2.4100000000 
H 5.5600000000 2.5200000000 3.3400000000 
H 6.7400000000 2.7600000000 2.3500000000 
O 1.2100000000 2.5200000000 4.1600000000 
H 2.0200000000 3.1000000000 4.3400000000 
H 1.6300000000 1.6000000000 4.0400000000 
O 6.6600000000 4.3800000000 0.3100000000 
H 6.1500000000 3.6900000000 0.7700000000 
H 6.6600000000 4.1400000000 9.2000000000 
O 9.3800000000 4.6300000000 4.4900000000 
H 0.0400000000 5.3200000000 5.0200000000 
H 0.2400000000 3.9400000000 4.3800000000 
O 9.5300000000 9.5300000000 4.2200000000 
H 0.5600000000 9.3000000000 3.9300000000 
H 8.9500000000 9.2000000000 3.4800000000 
O 2.3700000000 9.4400000000 3.5200000000 
H 2.7900000000 9.5100000000 2.6600000000 
H 3.1600000000 9.4500000000 4.0600000000 
O 1.3800000000 0.8800000000 9.2200000000 
H 1.9300000000 1.6500000000 9.0100000000 
H 1.5200000000 0.4300000000 8.3900000000 
O 0.7300000000 7.4000000000 0.3000000000 
H 1.0200000000 8.3300000000 0.2900000000 
H 1.4100000000 6.9300000000 9.6100000000 
O 7.5200000000 6.6100000000 3.8800000000 
H 7.9000000000 7.2200000000 3.2300000000 
H 8.3000000000 5.9700000000 4.0700000000 

