&CONTROL
/
&SYSTEM
   ntyp             = 2
   nat              = 96
   ibrav            = 0
/
&ELECTRONS
/
&IONS
/
&CELL
/

ATOMIC_SPECIES
O 15.999 None
H 1.008 None

K_POINTS gamma

CELL_PARAMETERS angstrom
9.86520000000000 0.00000000000000 0.00000000000000
0.00000000000000 9.86520000000000 0.00000000000000
0.00000000000000 0.00000000000000 9.86520000000000

ATOMIC_POSITIONS angstrom
O 2.6400000000 4.6600000000 9.4500000000 
H 2.8200000000 5.3900000000 8.8600000000 
H 3.5700000000 4.3500000000 9.5700000000 
O 5.0700000000 3.4400000000 5.4300000000 
H 4.8300000000 2.9700000000 4.6000000000 
H 4.6500000000 4.2700000000 5.1200000000 
O 6.5700000000 9.6700000000 4.1100000000 
H 7.3900000000 9.4600000000 3.5800000000 
H 6.1400000000 0.3900000000 3.4400000000 
O 8.5300000000 8.9100000000 2.4000000000 
H 8.0700000000 8.6200000000 1.5900000000 
H 9.3200000000 8.4300000000 2.4500000000 
O 9.2000000000 4.5600000000 0.4200000000 
H 0.3400000000 4.5900000000 0.3400000000 
H 8.8800000000 5.3200000000 9.7700000000 
O 5.9400000000 7.0700000000 4.5800000000 
H 6.7000000000 7.0300000000 5.2700000000 
H 6.0300000000 8.0300000000 4.3800000000 
O 1.6200000000 8.4100000000 1.6300000000 
H 1.7900000000 8.4500000000 0.6600000000 
H 1.6900000000 7.4700000000 1.8700000000 
O 4.7500000000 1.3400000000 0.4100000000 
H 5.5600000000 0.9800000000 0.0100000000 
H 4.0100000000 0.7500000000 0.0900000000 
O 8.5900000000 1.7700000000 8.7000000000 
H 8.2500000000 0.9100000000 8.4100000000 
H 9.4600000000 1.5200000000 9.0300000000 
O 6.6200000000 6.9800000000 1.2300000000 
H 6.4800000000 6.9600000000 2.1600000000 
H 6.1800000000 6.1800000000 0.9100000000 
O 5.7800000000 6.1800000000 7.4300000000 
H 5.6900000000 5.6700000000 6.5800000000 
H 5.8900000000 5.3400000000 8.0500000000 
O 5.1600000000 4.7500000000 0.4800000000 
H 5.7200000000 4.1500000000 9.6600000000 
H 5.1500000000 4.0800000000 1.2300000000 
O 7.5100000000 9.5000000000 7.0600000000 
H 7.0500000000 9.7200000000 6.1700000000 
H 8.4600000000 9.4600000000 6.7300000000 
O 8.5200000000 4.5900000000 4.6600000000 
H 8.6000000000 3.6200000000 4.4500000000 
H 8.4500000000 4.5100000000 5.6400000000 
O 5.3000000000 2.1500000000 2.8700000000 
H 6.3100000000 2.3800000000 2.6800000000 
H 4.8700000000 1.7400000000 2.0700000000 
O 8.4900000000 6.7400000000 8.5500000000 
H 9.0000000000 7.6000000000 8.6000000000 
H 7.5500000000 7.0300000000 8.2000000000 
O 2.7700000000 1.5900000000 6.8100000000 
H 2.7900000000 1.1300000000 5.9600000000 
H 3.5100000000 2.2800000000 6.7600000000 
O 1.5900000000 6.4000000000 6.0800000000 
H 1.0500000000 6.8900000000 5.3800000000 
H 1.0600000000 5.5800000000 6.2100000000 
O 6.4400000000 3.4000000000 8.0900000000 
H 6.0400000000 3.1200000000 7.2600000000 
H 7.2800000000 2.8400000000 8.1900000000 
O 0.0100000000 9.6300000000 5.8600000000 
H 0.7400000000 9.5600000000 5.1800000000 
H 9.7400000000 0.7300000000 5.9300000000 
O 3.1900000000 6.9900000000 8.0600000000 
H 2.5900000000 7.0700000000 7.2400000000 
H 4.1200000000 7.0000000000 7.7200000000 
O 1.6400000000 1.2700000000 2.3400000000 
H 1.6900000000 0.3400000000 1.9400000000 
H 1.5100000000 1.7300000000 1.5000000000 
O 3.7300000000 5.6900000000 4.6200000000 
H 2.9700000000 6.0800000000 5.1100000000 
H 4.3300000000 6.4800000000 4.5300000000 
O 1.4200000000 2.1600000000 9.4200000000 
H 1.6000000000 2.0000000000 8.5100000000 
H 1.7700000000 3.0300000000 9.6100000000 
O 6.8400000000 9.2200000000 9.6900000000 
H 6.7800000000 8.3100000000 0.2100000000 
H 6.8200000000 9.0700000000 8.7000000000 
O 2.2300000000 5.6300000000 2.0900000000 
H 2.6300000000 5.2000000000 1.2300000000 
H 2.7700000000 5.2500000000 2.8100000000 
O 0.1500000000 6.4700000000 3.7000000000 
H 0.6200000000 6.0600000000 2.9200000000 
H 9.3900000000 5.7100000000 3.9200000000 
O 2.8900000000 9.8600000000 4.4000000000 
H 2.4800000000 0.5300000000 3.7600000000 
H 3.5700000000 9.4300000000 3.9500000000 
O 9.3400000000 1.8700000000 3.7800000000 
H 8.7000000000 1.9600000000 2.9900000000 
H 0.4000000000 1.8600000000 3.4100000000 
O 7.6600000000 2.2900000000 1.4300000000 
H 8.2100000000 3.0400000000 1.1300000000 
H 7.7800000000 1.6500000000 0.6700000000 
O 2.9700000000 9.4400000000 9.0400000000 
H 2.9000000000 8.5400000000 8.7000000000 
H 2.7700000000 0.1300000000 8.2900000000 
O 9.3800000000 4.4900000000 7.3600000000 
H 9.3900000000 3.6900000000 7.9800000000 
H 9.0600000000 5.2500000000 7.7900000000 

