&CONTROL
/
&SYSTEM
   ntyp             = 2
   nat              = 96
   ibrav            = 0
/
&ELECTRONS
/
&IONS
/
&CELL
/

ATOMIC_SPECIES
O 15.999 None
H 1.008 None

K_POINTS gamma

CELL_PARAMETERS angstrom
9.86520000000000 0.00000000000000 0.00000000000000
0.00000000000000 9.86520000000000 0.00000000000000
0.00000000000000 0.00000000000000 9.86520000000000

ATOMIC_POSITIONS angstrom
O 9.5900000000 6.7800000000 4.3700000000 
H 0.5800000000 7.1500000000 4.1000000000 
H 9.0000000000 7.5400000000 4.2400000000 
O 4.7900000000 6.4600000000 9.4400000000 
H 4.2200000000 7.1600000000 9.8100000000 
H 5.3100000000 6.9600000000 8.7800000000 
O 4.9000000000 4.5800000000 1.6500000000 
H 5.6800000000 4.8400000000 2.1900000000 
H 4.9000000000 5.2200000000 0.9400000000 
O 9.2500000000 9.0200000000 2.3200000000 
H 9.0000000000 0.0600000000 1.9000000000 
H 8.6300000000 9.0800000000 3.0600000000 
O 7.6500000000 5.5200000000 2.5200000000 
H 7.7200000000 5.7500000000 3.5200000000 
H 8.4300000000 5.0000000000 2.4400000000 
O 7.2600000000 8.1300000000 4.1300000000 
H 6.6600000000 7.7400000000 4.8100000000 
H 6.6200000000 8.6600000000 3.5200000000 
O 1.1900000000 0.5300000000 4.3200000000 
H 2.1100000000 0.7200000000 4.5400000000 
H 1.1400000000 9.5300000000 3.9500000000 
O 9.0200000000 9.7500000000 7.7400000000 
H 8.3900000000 8.9700000000 7.7800000000 
H 0.0000000000 9.2900000000 7.7900000000 
O 4.2900000000 9.6000000000 7.7400000000 
H 4.9300000000 0.4300000000 7.9800000000 
H 3.5500000000 9.6600000000 8.4100000000 
O 3.4500000000 8.5100000000 0.5300000000 
H 4.0700000000 8.6000000000 1.2700000000 
H 2.8700000000 9.2500000000 0.7600000000 
O 4.8700000000 9.3500000000 2.7700000000 
H 4.5500000000 9.8600000000 3.6400000000 
H 5.1400000000 0.2300000000 2.1300000000 
O 2.5000000000 6.2600000000 6.6500000000 
H 3.4600000000 6.0900000000 6.9200000000 
H 2.2300000000 5.2800000000 6.7200000000 
O 7.5600000000 7.2900000000 7.7200000000 
H 8.3200000000 6.8400000000 7.2800000000 
H 7.6000000000 7.0300000000 8.6600000000 
O 9.7000000000 3.8600000000 3.4100000000 
H 9.7100000000 4.7000000000 3.9600000000 
H 0.8000000000 3.6600000000 3.3000000000 
O 5.3700000000 7.7200000000 6.1000000000 
H 6.0900000000 7.5600000000 6.7300000000 
H 4.7400000000 8.3500000000 6.5200000000 
O 4.5900000000 3.4000000000 5.0100000000 
H 4.4600000000 3.8000000000 5.9000000000 
H 5.5700000000 3.5400000000 4.8700000000 
O 8.4400000000 2.4300000000 8.7700000000 
H 9.0200000000 3.1700000000 8.4600000000 
H 8.7600000000 1.5100000000 8.4500000000 
O 1.5100000000 8.3800000000 8.1800000000 
H 1.6500000000 7.7900000000 7.4300000000 
H 1.7800000000 7.8000000000 8.9500000000 
O 8.5200000000 1.1100000000 5.4900000000 
H 9.3000000000 0.7800000000 5.0100000000 
H 8.6600000000 0.7300000000 6.3900000000 
O 7.1000000000 4.1700000000 5.5300000000 
H 7.5700000000 3.3100000000 5.3000000000 
H 7.6700000000 4.6100000000 6.2100000000 
O 2.6500000000 3.6200000000 2.9500000000 
H 3.3500000000 4.1800000000 2.4400000000 
H 3.2500000000 3.4000000000 3.7100000000 
O 7.6900000000 7.3200000000 0.5300000000 
H 7.4500000000 6.5600000000 1.1800000000 
H 8.2000000000 8.0000000000 1.0700000000 
O 1.4200000000 1.3600000000 1.5100000000 
H 0.9900000000 0.8300000000 2.2000000000 
H 1.9600000000 2.0400000000 2.0400000000 
O 0.8300000000 3.2600000000 6.3600000000 
H 0.3400000000 2.6000000000 5.7400000000 
H 1.4000000000 2.6800000000 7.0400000000 
O 4.6900000000 4.2800000000 7.5400000000 
H 5.1500000000 3.5600000000 7.9900000000 
H 5.0000000000 5.0600000000 7.9700000000 
O 1.6400000000 1.3800000000 8.5300000000 
H 1.4700000000 1.4500000000 9.4800000000 
H 1.5100000000 0.3700000000 8.3300000000 
O 3.7900000000 0.5200000000 5.2000000000 
H 4.0200000000 1.4600000000 5.4000000000 
H 3.9200000000 0.1100000000 6.1700000000 
O 5.8000000000 1.8300000000 8.4200000000 
H 6.8200000000 1.9600000000 8.3800000000 
H 5.6800000000 1.8200000000 9.3400000000 
O 2.5600000000 7.7500000000 4.4400000000 
H 3.5300000000 7.9300000000 4.3700000000 
H 2.5700000000 7.2200000000 5.2400000000 
O 8.2500000000 1.7900000000 1.5500000000 
H 8.4500000000 2.1600000000 0.6500000000 
H 8.9400000000 2.3200000000 2.0800000000 
O 5.5100000000 1.7900000000 1.3900000000 
H 6.5000000000 1.9600000000 1.3900000000 
H 5.1600000000 2.6200000000 1.8700000000 
O 9.2000000000 5.3800000000 6.7600000000 
H 9.6300000000 5.9700000000 6.1400000000 
H 9.7900000000 4.5500000000 6.6100000000 

