&CONTROL
/
&SYSTEM
   ntyp             = 2
   nat              = 96
   ibrav            = 0
/
&ELECTRONS
/
&IONS
/
&CELL
/

ATOMIC_SPECIES
O 15.999 None
H 1.008 None

K_POINTS gamma

CELL_PARAMETERS angstrom
9.86520000000000 0.00000000000000 0.00000000000000
0.00000000000000 9.86520000000000 0.00000000000000
0.00000000000000 0.00000000000000 9.86520000000000

ATOMIC_POSITIONS angstrom
O 7.5000000000 6.2300000000 5.4600000000 
H 8.1000000000 5.8500000000 6.1200000000 
H 8.1200000000 6.1400000000 4.6800000000 
O 2.4300000000 2.8600000000 3.4100000000 
H 3.1400000000 3.5400000000 3.6500000000 
H 1.8600000000 3.2600000000 2.7000000000 
O 8.5700000000 3.5100000000 4.1300000000 
H 8.7300000000 2.9300000000 3.3500000000 
H 7.6600000000 3.6100000000 4.1700000000 
O 2.1800000000 4.5000000000 9.4300000000 
H 1.7500000000 3.9800000000 0.2600000000 
H 3.0600000000 4.0300000000 9.3000000000 
O 2.6100000000 7.1100000000 5.6300000000 
H 2.0200000000 6.3400000000 5.6200000000 
H 2.0100000000 7.8700000000 5.8100000000 
O 5.8800000000 9.3700000000 3.2800000000 
H 5.0000000000 9.6900000000 2.9700000000 
H 5.9700000000 9.5900000000 4.2400000000 
O 4.6100000000 3.3400000000 8.7100000000 
H 4.9900000000 3.3000000000 7.8700000000 
H 5.2500000000 2.9800000000 9.3600000000 
O 0.5200000000 3.1000000000 1.2800000000 
H 9.4200000000 2.9300000000 1.5600000000 
H 0.9100000000 2.2200000000 1.0800000000 
O 1.4200000000 0.5900000000 0.3800000000 
H 0.7900000000 9.8300000000 9.8300000000 
H 2.1500000000 0.7300000000 9.5700000000 
O 8.7200000000 8.3900000000 7.9100000000 
H 9.2400000000 8.5100000000 7.1700000000 
H 9.0300000000 7.5200000000 8.2000000000 
O 2.3400000000 1.0700000000 6.1300000000 
H 2.8000000000 1.5500000000 5.4200000000 
H 1.5900000000 1.6000000000 6.4200000000 
O 9.6100000000 2.4400000000 6.5100000000 
H 8.7700000000 2.1500000000 6.9300000000 
H 9.3400000000 2.8100000000 5.6100000000 
O 5.2600000000 7.8400000000 6.2600000000 
H 4.4500000000 7.3500000000 5.9300000000 
H 6.0400000000 7.3500000000 5.7800000000 
O 6.1800000000 3.2700000000 6.3700000000 
H 6.0200000000 3.4100000000 5.4000000000 
H 6.2800000000 2.2300000000 6.3000000000 
O 8.6100000000 9.0600000000 2.6600000000 
H 9.0800000000 8.2100000000 2.4700000000 
H 7.7100000000 8.8400000000 2.9400000000 
O 2.4400000000 7.2600000000 0.1500000000 
H 2.6000000000 6.2900000000 0.0300000000 
H 3.0900000000 7.4200000000 0.8700000000 
O 3.4000000000 0.6800000000 2.4200000000 
H 2.6200000000 0.5200000000 1.8600000000 
H 3.0700000000 1.4800000000 2.8600000000 
O 0.5900000000 5.2800000000 7.1100000000 
H 1.1900000000 5.1500000000 7.8700000000 
H 0.3400000000 4.3700000000 6.8100000000 
O 3.4900000000 9.1700000000 8.5200000000 
H 3.4900000000 8.8600000000 7.6100000000 
H 3.2000000000 8.4800000000 9.1500000000 
O 7.9400000000 1.8000000000 2.0500000000 
H 7.1000000000 1.8000000000 1.6300000000 
H 8.2000000000 0.8600000000 2.2600000000 
O 4.9100000000 7.3600000000 1.4900000000 
H 5.1300000000 8.0700000000 2.1400000000 
H 5.4600000000 7.6000000000 0.7400000000 
O 5.6200000000 3.6500000000 3.8100000000 
H 6.0900000000 3.8400000000 2.9400000000 
H 4.8200000000 4.2700000000 3.8700000000 
O 0.4100000000 8.7600000000 5.6600000000 
H 0.9600000000 9.5400000000 5.7400000000 
H 9.7900000000 9.0300000000 4.8000000000 
O 7.7300000000 4.0700000000 8.4100000000 
H 8.0000000000 3.1700000000 8.2700000000 
H 6.9300000000 4.0400000000 7.7500000000 
O 6.3800000000 4.3600000000 1.1700000000 
H 7.0200000000 4.5000000000 0.4400000000 
H 5.9800000000 5.2500000000 1.2000000000 
O 8.4400000000 6.2000000000 2.5200000000 
H 8.5800000000 5.3000000000 2.6600000000 
H 8.7100000000 6.3300000000 1.5600000000 
O 8.0800000000 1.1800000000 8.5700000000 
H 7.3700000000 0.8100000000 9.1200000000 
H 8.4500000000 0.3900000000 8.1800000000 
O 5.4800000000 0.6300000000 9.6900000000 
H 5.4600000000 0.0300000000 0.5800000000 
H 4.6900000000 0.3400000000 9.1600000000 
O 3.6700000000 5.4700000000 3.7400000000 
H 4.1100000000 5.9300000000 2.9500000000 
H 3.4500000000 6.2700000000 4.2100000000 
O 9.3000000000 5.9200000000 9.6600000000 
H 8.7800000000 5.2500000000 9.1900000000 
H 0.2600000000 5.4400000000 9.6200000000 
O 5.5100000000 0.7700000000 6.4000000000 
H 4.7000000000 1.1400000000 6.8800000000 
H 5.5500000000 9.7400000000 6.5200000000 
O 6.4100000000 7.4800000000 9.0200000000 
H 7.2400000000 7.9100000000 8.6700000000 
H 5.9600000000 7.3100000000 8.0700000000 

