&CONTROL
/
&SYSTEM
   ntyp             = 2
   nat              = 96
   ibrav            = 0
/
&ELECTRONS
/
&IONS
/
&CELL
/

ATOMIC_SPECIES
O 15.999 None
H 1.008 None

K_POINTS gamma

CELL_PARAMETERS angstrom
9.86520000000000 0.00000000000000 0.00000000000000
0.00000000000000 9.86520000000000 0.00000000000000
0.00000000000000 0.00000000000000 9.86520000000000

ATOMIC_POSITIONS angstrom
O 1.6200000000 6.4600000000 7.5600000000 
H 1.6000000000 7.2600000000 8.1100000000 
H 2.6200000000 6.2700000000 7.4300000000 
O 4.3600000000 9.1000000000 8.5900000000 
H 4.9900000000 9.8300000000 8.5500000000 
H 3.4500000000 9.4200000000 8.7000000000 
O 0.4500000000 1.4800000000 7.5900000000 
H 0.7400000000 2.3800000000 7.2800000000 
H 9.8200000000 1.1500000000 6.7900000000 
O 5.9400000000 1.4600000000 8.3900000000 
H 6.1500000000 1.7200000000 7.4300000000 
H 6.8300000000 1.4900000000 8.8200000000 
O 1.4900000000 8.9500000000 8.5600000000 
H 1.2200000000 9.2200000000 9.4900000000 
H 1.1700000000 9.7000000000 8.0000000000 
O 3.5800000000 2.1700000000 7.4700000000 
H 3.6400000000 1.6100000000 6.6600000000 
H 4.2900000000 1.7900000000 8.0500000000 
O 1.2500000000 9.6500000000 1.2600000000 
H 1.7900000000 0.5900000000 0.9600000000 
H 1.5900000000 9.5200000000 2.1700000000 
O 8.6000000000 1.8900000000 9.6900000000 
H 9.2600000000 2.2700000000 0.4200000000 
H 9.1600000000 1.7500000000 8.9300000000 
O 0.9900000000 3.6900000000 0.7700000000 
H 0.8900000000 4.3800000000 1.4700000000 
H 0.9200000000 4.1100000000 9.7100000000 
O 5.4200000000 7.6000000000 6.4900000000 
H 4.9500000000 8.3000000000 7.0000000000 
H 5.1000000000 6.7600000000 6.7600000000 
O 0.8600000000 5.5300000000 2.8600000000 
H 0.8500000000 6.2500000000 3.5500000000 
H 0.6300000000 4.7000000000 3.3500000000 
O 6.7900000000 1.5500000000 3.6700000000 
H 6.3100000000 1.1600000000 2.9000000000 
H 7.4100000000 2.1800000000 3.2600000000 
O 4.0900000000 5.1300000000 7.6500000000 
H 4.1500000000 4.2300000000 7.3500000000 
H 4.2200000000 4.9400000000 8.6600000000 
O 4.9800000000 0.3400000000 2.2500000000 
H 4.2000000000 9.5800000000 2.5600000000 
H 4.4200000000 1.0100000000 1.8000000000 
O 3.8200000000 6.7000000000 0.7800000000 
H 2.9000000000 6.8900000000 0.8600000000 
H 4.1200000000 7.3600000000 0.1300000000 
O 4.0900000000 0.5800000000 5.2800000000 
H 4.9100000000 0.2700000000 4.8400000000 
H 4.0100000000 1.4900000000 4.9400000000 
O 0.1700000000 4.1500000000 7.2200000000 
H 9.0900000000 4.4700000000 7.4000000000 
H 0.7000000000 4.9400000000 7.4200000000 
O 1.0900000000 3.2600000000 4.5300000000 
H 0.7900000000 3.5200000000 5.4400000000 
H 0.7100000000 2.4000000000 4.4900000000 
O 0.7400000000 7.2600000000 4.9000000000 
H 9.6600000000 7.2800000000 5.0200000000 
H 1.0100000000 6.9600000000 5.8300000000 
O 4.6600000000 3.9100000000 0.4700000000 
H 4.4000000000 4.2500000000 1.4000000000 
H 5.6300000000 4.0600000000 0.5700000000 
O 6.2000000000 7.7900000000 2.7800000000 
H 7.0300000000 7.4200000000 2.3600000000 
H 6.0300000000 8.6000000000 2.1800000000 
O 7.7900000000 7.2300000000 5.2300000000 
H 7.1300000000 7.6700000000 5.7600000000 
H 7.3500000000 7.2800000000 4.3600000000 
O 8.1900000000 3.6200000000 2.6200000000 
H 8.0700000000 4.1200000000 1.7300000000 
H 7.8800000000 4.3400000000 3.2200000000 
O 2.9100000000 1.7800000000 0.8700000000 
H 2.2100000000 2.4700000000 1.1300000000 
H 3.4600000000 2.3700000000 0.2400000000 
O 4.9200000000 5.2600000000 2.8800000000 
H 4.6300000000 5.8000000000 2.0400000000 
H 5.4000000000 5.9200000000 3.2800000000 
O 7.3300000000 5.2900000000 0.3100000000 
H 7.5400000000 6.2100000000 0.4700000000 
H 6.8000000000 5.3300000000 9.3300000000 
O 3.8600000000 3.3100000000 4.4900000000 
H 4.1400000000 4.0500000000 3.9100000000 
H 2.8600000000 3.4000000000 4.5200000000 
O 9.3100000000 0.6100000000 5.0700000000 
H 9.8100000000 9.8100000000 4.5300000000 
H 8.3700000000 0.5300000000 4.7600000000 
O 6.4500000000 2.9200000000 5.9700000000 
H 6.7800000000 2.2700000000 5.2800000000 
H 5.5000000000 2.9700000000 5.7700000000 
O 2.1800000000 9.1300000000 3.7800000000 
H 2.5800000000 9.5700000000 4.5400000000 
H 1.6600000000 8.4200000000 4.3200000000 
O 8.7500000000 7.4300000000 1.6800000000 
H 9.2300000000 6.5600000000 1.9600000000 
H 9.4100000000 8.1600000000 1.5700000000 
O 7.4100000000 5.2200000000 7.1200000000 
H 7.4600000000 5.9600000000 6.4200000000 
H 6.9700000000 4.4200000000 6.7500000000 

