&CONTROL
/
&SYSTEM
   ntyp             = 2
   nat              = 96
   ibrav            = 0
/
&ELECTRONS
/
&IONS
/
&CELL
/

ATOMIC_SPECIES
O 15.999 None
H 1.008 None

K_POINTS gamma

CELL_PARAMETERS angstrom
9.86520000000000 0.00000000000000 0.00000000000000
0.00000000000000 9.86520000000000 0.00000000000000
0.00000000000000 0.00000000000000 9.86520000000000

ATOMIC_POSITIONS angstrom
O 2.0900000000 7.0600000000 6.8100000000 
H 2.5000000000 7.9700000000 6.7500000000 
H 2.7900000000 6.5200000000 7.3400000000 
O 3.7800000000 9.8500000000 0.5800000000 
H 4.5800000000 9.5400000000 0.0300000000 
H 4.0000000000 9.4300000000 1.4400000000 
O 0.7300000000 2.6900000000 5.5400000000 
H 9.7100000000 3.0100000000 5.1400000000 
H 0.7200000000 1.7300000000 5.4500000000 
O 6.3500000000 9.2800000000 9.3400000000 
H 6.6200000000 0.2900000000 9.7700000000 
H 7.2400000000 8.8400000000 9.4100000000 
O 2.5800000000 9.7000000000 6.6400000000 
H 2.5700000000 0.5000000000 7.3600000000 
H 1.6000000000 9.5800000000 6.5600000000 
O 4.8200000000 2.8100000000 7.4700000000 
H 4.3800000000 3.1000000000 6.6200000000 
H 4.0800000000 2.2300000000 7.9000000000 
O 1.1500000000 8.7400000000 0.4000000000 
H 1.9300000000 9.3200000000 0.1300000000 
H 0.6700000000 9.3000000000 1.1000000000 
O 6.9700000000 1.6600000000 0.6800000000 
H 7.3100000000 1.3300000000 1.5300000000 
H 6.3500000000 2.3600000000 0.9800000000 
O 0.4000000000 3.6300000000 1.6700000000 
H 0.5200000000 3.7900000000 0.6600000000 
H 0.4900000000 4.4100000000 2.2100000000 
O 5.3200000000 7.4900000000 7.6800000000 
H 5.4900000000 8.1200000000 8.3700000000 
H 4.8600000000 6.7100000000 8.1100000000 
O 0.5000000000 6.4800000000 2.0900000000 
H 1.0900000000 7.3100000000 2.2900000000 
H 0.1800000000 6.5700000000 1.1600000000 
O 7.5400000000 1.7300000000 3.4400000000 
H 6.7000000000 1.5600000000 3.8200000000 
H 7.9700000000 2.5500000000 3.8400000000 
O 3.7400000000 5.3900000000 8.6100000000 
H 4.0800000000 4.4600000000 8.5800000000 
H 3.4400000000 5.3900000000 9.5600000000 
O 4.7600000000 1.6300000000 3.7800000000 
H 4.9500000000 0.8900000000 4.4300000000 
H 4.1300000000 2.2400000000 4.2600000000 
O 3.6200000000 5.6100000000 1.7900000000 
H 4.0000000000 6.4800000000 1.9500000000 
H 2.8300000000 5.6800000000 2.4100000000 
O 5.0200000000 9.2400000000 5.5000000000 
H 5.2600000000 8.7000000000 6.2900000000 
H 4.0600000000 9.4800000000 5.7200000000 
O 0.2400000000 3.5600000000 8.6500000000 
H 9.8400000000 4.4300000000 8.2100000000 
H 9.4500000000 3.0000000000 8.2600000000 
O 0.2000000000 1.0300000000 2.4500000000 
H 9.2500000000 1.1300000000 2.9400000000 
H 0.3700000000 1.9600000000 2.0800000000 
O 1.6800000000 8.7200000000 3.6200000000 
H 1.3600000000 9.4800000000 3.1100000000 
H 1.2900000000 8.9700000000 4.4600000000 
O 5.0500000000 3.3000000000 1.5700000000 
H 4.6100000000 2.5400000000 2.0300000000 
H 4.4000000000 4.0000000000 1.7400000000 
O 7.1900000000 7.8700000000 2.3400000000 
H 7.5000000000 7.4100000000 1.4800000000 
H 6.3300000000 8.3200000000 2.0700000000 
O 8.2400000000 7.4300000000 4.8200000000 
H 7.6200000000 6.7900000000 5.2800000000 
H 7.9500000000 7.4700000000 3.8300000000 
O 8.0900000000 4.1300000000 4.3100000000 
H 7.3700000000 4.5500000000 4.8800000000 
H 7.7200000000 4.2200000000 3.4100000000 
O 2.3400000000 1.8400000000 8.4600000000 
H 1.6700000000 2.5600000000 8.3300000000 
H 2.5000000000 1.8000000000 9.4400000000 
O 2.0000000000 5.7600000000 4.4100000000 
H 1.2600000000 6.1400000000 3.9800000000 
H 1.9200000000 6.1400000000 5.3300000000 
O 9.3500000000 6.4000000000 7.3100000000 
H 0.4100000000 6.5500000000 7.2800000000 
H 9.0300000000 6.8000000000 6.4700000000 
O 3.3600000000 3.4100000000 5.0300000000 
H 3.2900000000 4.2900000000 4.6300000000 
H 2.3800000000 3.2700000000 5.2400000000 
O 9.4600000000 9.6400000000 5.8600000000 
H 8.9700000000 8.8400000000 5.5500000000 
H 8.7500000000 0.2200000000 6.2700000000 
O 7.4800000000 2.4600000000 7.9700000000 
H 7.4700000000 2.1500000000 8.9500000000 
H 6.5400000000 2.5200000000 7.8900000000 
O 4.3500000000 8.1700000000 2.6300000000 
H 4.9800000000 8.1400000000 3.3700000000 
H 3.5100000000 8.4200000000 3.0100000000 
O 8.6100000000 7.8000000000 9.5700000000 
H 8.6800000000 7.1900000000 8.8000000000 
H 9.5200000000 8.1800000000 9.6900000000 
O 6.8900000000 5.4300000000 6.2700000000 
H 6.5200000000 6.1200000000 6.8300000000 
H 6.9500000000 4.7200000000 6.8500000000 

