&CONTROL
/
&SYSTEM
   ntyp             = 2
   nat              = 96
   ibrav            = 0
/
&ELECTRONS
/
&IONS
/
&CELL
/

ATOMIC_SPECIES
O 15.999 None
H 1.008 None

K_POINTS gamma

CELL_PARAMETERS angstrom
9.86520000000000 0.00000000000000 0.00000000000000
0.00000000000000 9.86520000000000 0.00000000000000
0.00000000000000 0.00000000000000 9.86520000000000

ATOMIC_POSITIONS angstrom
O 7.3800000000 9.1400000000 5.2100000000 
H 6.7800000000 8.6500000000 5.6500000000 
H 7.0700000000 8.8800000000 4.3300000000 
O 3.4400000000 1.3200000000 6.3200000000 
H 3.5100000000 0.7300000000 5.5400000000 
H 2.7500000000 1.8800000000 5.9900000000 
O 0.5100000000 8.7900000000 5.3300000000 
H 9.4300000000 8.5800000000 5.5300000000 
H 1.0400000000 8.5300000000 6.1000000000 
O 5.1900000000 7.4800000000 5.6800000000 
H 4.6700000000 7.7400000000 6.4900000000 
H 4.5500000000 6.8000000000 5.3200000000 
O 2.4600000000 6.2100000000 1.2300000000 
H 2.1300000000 5.2700000000 1.1800000000 
H 3.2300000000 6.2600000000 0.6500000000 
O 9.0200000000 3.8600000000 2.2700000000 
H 0.0900000000 3.6900000000 1.9800000000 
H 8.9700000000 3.4600000000 3.2300000000 
O 2.3700000000 1.8800000000 9.0300000000 
H 2.8000000000 1.7800000000 8.1100000000 
H 1.5400000000 1.3900000000 8.9300000000 
O 6.0900000000 4.2300000000 7.2600000000 
H 6.4000000000 3.2800000000 7.2700000000 
H 5.5400000000 4.2500000000 8.0400000000 
O 6.4700000000 1.5400000000 6.5200000000 
H 5.4700000000 1.4400000000 6.5200000000 
H 6.7400000000 0.7500000000 5.9500000000 
O 7.1200000000 3.2300000000 0.1000000000 
H 6.3400000000 3.2100000000 0.6600000000 
H 7.8200000000 3.5700000000 0.7500000000 
O 5.8600000000 4.5700000000 4.4000000000 
H 6.1100000000 4.2800000000 5.2800000000 
H 4.9600000000 4.9700000000 4.4600000000 
O 5.5400000000 2.7300000000 2.4400000000 
H 6.0300000000 3.1500000000 3.1800000000 
H 5.2200000000 1.8000000000 2.6300000000 
O 0.5900000000 8.1400000000 1.3600000000 
H 1.1700000000 7.3400000000 1.5500000000 
H 0.2400000000 7.8800000000 0.4700000000 
O 1.0300000000 5.3000000000 7.4000000000 
H 0.5700000000 5.8100000000 6.7500000000 
H 0.3900000000 4.6000000000 7.6800000000 
O 9.3500000000 3.0900000000 7.9400000000 
H 9.5800000000 2.2600000000 8.3800000000 
H 8.4200000000 3.1300000000 8.2700000000 
O 4.1800000000 3.9100000000 9.4500000000 
H 4.1200000000 3.3500000000 0.3800000000 
H 3.4200000000 3.4300000000 8.9800000000 
O 5.4600000000 6.1800000000 0.2400000000 
H 4.9700000000 5.4100000000 9.8200000000 
H 6.1000000000 5.8000000000 0.8600000000 
O 6.2100000000 0.8100000000 9.2000000000 
H 6.8900000000 1.2500000000 9.8000000000 
H 6.3700000000 1.1900000000 8.3200000000 
O 3.3700000000 5.5900000000 4.2800000000 
H 2.9500000000 4.7200000000 4.3800000000 
H 2.7900000000 6.2900000000 3.8700000000 
O 4.5700000000 8.4000000000 8.6000000000 
H 5.3000000000 8.9700000000 8.9000000000 
H 4.7600000000 7.5200000000 8.8900000000 
O 9.1500000000 2.6500000000 4.6400000000 
H 8.9700000000 1.7700000000 4.2700000000 
H 8.4400000000 2.7300000000 5.3100000000 
O 2.5600000000 8.3800000000 3.4900000000 
H 2.0600000000 8.1700000000 2.6900000000 
H 1.7500000000 8.5400000000 4.0700000000 
O 8.3000000000 6.2800000000 6.8100000000 
H 8.0700000000 5.4600000000 7.2100000000 
H 7.3800000000 6.5800000000 6.4800000000 
O 6.4000000000 8.4100000000 2.5600000000 
H 5.8900000000 8.2800000000 1.7100000000 
H 6.8200000000 7.5000000000 2.7500000000 
O 4.4500000000 0.3400000000 3.7500000000 
H 3.6600000000 9.5600000000 3.5600000000 
H 5.2300000000 9.5100000000 3.8300000000 
O 8.5900000000 0.2800000000 1.8000000000 
H 9.2800000000 9.3900000000 1.8800000000 
H 7.7500000000 9.7300000000 2.2000000000 
O 0.0300000000 0.6500000000 9.1500000000 
H 9.4100000000 0.5500000000 0.1800000000 
H 9.7500000000 9.6000000000 8.8300000000 
O 7.3200000000 5.8900000000 2.5700000000 
H 6.7100000000 5.4200000000 3.1700000000 
H 8.0000000000 5.1800000000 2.3700000000 
O 9.6800000000 8.0000000000 8.4700000000 
H 0.6800000000 7.6900000000 8.1100000000 
H 9.0400000000 7.4900000000 7.8700000000 
O 1.6900000000 3.2800000000 1.5100000000 
H 2.1000000000 2.7400000000 2.2000000000 
H 2.0300000000 2.8400000000 0.7000000000 
O 1.7400000000 3.1900000000 5.5300000000 
H 1.5100000000 3.8200000000 6.2700000000 
H 0.8500000000 3.0800000000 5.0200000000 
O 2.4000000000 8.5000000000 7.0900000000 
H 2.5200000000 9.3800000000 6.9000000000 
H 3.1500000000 8.2900000000 7.7400000000 

