&CONTROL
/
&SYSTEM
   ntyp             = 2
   nat              = 96
   ibrav            = 0
/
&ELECTRONS
/
&IONS
/
&CELL
/

ATOMIC_SPECIES
O 15.999 None
H 1.008 None

K_POINTS gamma

CELL_PARAMETERS angstrom
9.86520000000000 0.00000000000000 0.00000000000000
0.00000000000000 9.86520000000000 0.00000000000000
0.00000000000000 0.00000000000000 9.86520000000000

ATOMIC_POSITIONS angstrom
O 3.6200000000 8.7500000000 8.9000000000 
H 3.7700000000 9.6900000000 8.7100000000 
H 3.8400000000 8.3500000000 8.0200000000 
O 0.1700000000 4.1800000000 7.9000000000 
H 1.1100000000 4.5800000000 7.9600000000 
H 0.3700000000 3.4000000000 7.2900000000 
O 7.6800000000 8.2200000000 6.8400000000 
H 7.1600000000 7.4000000000 7.0000000000 
H 8.5500000000 7.8000000000 7.0000000000 
O 2.1100000000 0.1700000000 1.1600000000 
H 1.2300000000 9.6200000000 1.3200000000 
H 2.5700000000 9.3400000000 0.5400000000 
O 3.9000000000 1.5600000000 8.5300000000 
H 3.5000000000 2.4100000000 8.9000000000 
H 3.5200000000 1.5700000000 7.6100000000 
O 8.5500000000 5.1300000000 0.3400000000 
H 9.1300000000 5.0700000000 9.4500000000 
H 8.9700000000 4.6500000000 1.1500000000 
O 7.6700000000 6.2900000000 4.3400000000 
H 7.5200000000 6.0100000000 5.2900000000 
H 7.1100000000 5.7400000000 3.8300000000 
O 7.0800000000 1.1300000000 7.2300000000 
H 6.6900000000 1.0600000000 8.1300000000 
H 7.3700000000 0.1600000000 7.1200000000 
O 5.7200000000 3.5300000000 7.8000000000 
H 5.6700000000 3.4600000000 8.8100000000 
H 6.1100000000 2.6300000000 7.5900000000 
O 8.3500000000 0.4900000000 2.5100000000 
H 8.8900000000 9.5900000000 2.7400000000 
H 7.4300000000 0.2800000000 2.6900000000 
O 1.8600000000 9.6400000000 4.2800000000 
H 1.2200000000 8.9600000000 3.9300000000 
H 2.2000000000 0.0900000000 3.4100000000 
O 3.6600000000 8.3900000000 6.2500000000 
H 3.4600000000 7.8700000000 5.4300000000 
H 2.9800000000 9.1100000000 6.1000000000 
O 6.8400000000 7.1700000000 0.6800000000 
H 6.2400000000 6.4500000000 0.9500000000 
H 7.6400000000 6.6300000000 0.4700000000 
O 2.5900000000 6.2400000000 4.7500000000 
H 2.1700000000 6.0600000000 3.8800000000 
H 3.3100000000 5.5500000000 4.7800000000 
O 7.4600000000 5.5200000000 6.9500000000 
H 6.8900000000 4.8000000000 7.3900000000 
H 8.3300000000 5.2900000000 7.3900000000 
O 0.3700000000 0.9300000000 7.4300000000 
H 9.8500000000 0.4500000000 8.2400000000 
H 9.8000000000 0.4300000000 6.6900000000 
O 2.6100000000 2.3800000000 2.7700000000 
H 2.4400000000 1.7600000000 2.1000000000 
H 3.5100000000 2.0900000000 2.9700000000 
O 2.5200000000 1.6400000000 6.3500000000 
H 2.0600000000 1.2100000000 5.5700000000 
H 1.7300000000 1.6000000000 6.9300000000 
O 4.1700000000 4.1200000000 5.7000000000 
H 3.7100000000 3.2700000000 5.5400000000 
H 4.8800000000 3.9000000000 6.3800000000 
O 8.9400000000 9.5400000000 0.0200000000 
H 8.6700000000 0.0700000000 0.9000000000 
H 8.5400000000 8.6900000000 0.0100000000 
O 5.1100000000 1.2600000000 3.5000000000 
H 5.3900000000 0.4800000000 4.0700000000 
H 5.1900000000 0.8800000000 2.6100000000 
O 3.7000000000 4.9000000000 2.0700000000 
H 4.5800000000 4.9300000000 2.5500000000 
H 3.5100000000 3.8800000000 2.1200000000 
O 2.6200000000 5.0900000000 8.0500000000 
H 3.3000000000 5.6700000000 8.4200000000 
H 2.9800000000 4.9200000000 7.1700000000 
O 6.4900000000 2.1200000000 0.6300000000 
H 6.0600000000 1.3000000000 0.5900000000 
H 7.4500000000 2.0000000000 0.3700000000 
O 6.5100000000 8.8200000000 4.2300000000 
H 6.8400000000 8.0000000000 3.8000000000 
H 6.6900000000 8.6900000000 5.1800000000 
O 1.4100000000 6.4600000000 1.7000000000 
H 0.9200000000 5.6500000000 2.0500000000 
H 2.2600000000 6.0500000000 1.4200000000 
O 7.7000000000 2.4800000000 4.4900000000 
H 7.7000000000 1.9600000000 5.3700000000 
H 7.7500000000 1.8300000000 3.7800000000 
O 0.2600000000 4.0800000000 2.9300000000 
H 1.0200000000 3.3800000000 3.0000000000 
H 9.4900000000 3.7800000000 3.6400000000 
O 0.5100000000 7.2200000000 6.6800000000 
H 1.1900000000 7.1300000000 5.9800000000 
H 1.0100000000 6.8400000000 7.3800000000 
O 6.2500000000 4.2200000000 2.7100000000 
H 6.3100000000 3.5400000000 2.0600000000 
H 6.8000000000 3.7700000000 3.4200000000 
O 9.6700000000 8.1000000000 3.0900000000 
H 9.1800000000 7.5800000000 3.7700000000 
H 0.2800000000 7.4500000000 2.5500000000 
O 5.5800000000 9.5000000000 1.0600000000 
H 4.7800000000 9.1800000000 0.5800000000 
H 6.1300000000 8.6900000000 1.2200000000 

