&CONTROL
/
&SYSTEM
   ntyp             = 2
   nat              = 96
   ibrav            = 0
/
&ELECTRONS
/
&IONS
/
&CELL
/

ATOMIC_SPECIES
O 15.999 None
H 1.008 None

K_POINTS gamma

CELL_PARAMETERS angstrom
9.86520000000000 0.00000000000000 0.00000000000000
0.00000000000000 9.86520000000000 0.00000000000000
0.00000000000000 0.00000000000000 9.86520000000000

ATOMIC_POSITIONS angstrom
O 4.6000000000 8.9700000000 8.3300000000 
H 3.6900000000 8.6200000000 8.5200000000 
H 4.9000000000 8.3300000000 7.6700000000 
O 0.2700000000 3.8600000000 8.7500000000 
H 1.0000000000 3.7900000000 8.0600000000 
H 9.8100000000 2.9800000000 8.8600000000 
O 7.3800000000 6.9500000000 6.4800000000 
H 7.5200000000 6.3700000000 7.2600000000 
H 8.3400000000 7.1100000000 6.1500000000 
O 2.0300000000 0.3800000000 0.5800000000 
H 1.0000000000 0.4000000000 0.6100000000 
H 2.3300000000 9.4100000000 0.1400000000 
O 4.0500000000 2.3500000000 8.5300000000 
H 3.3400000000 1.6800000000 8.4100000000 
H 3.5700000000 3.1200000000 8.1900000000 
O 9.7900000000 6.0500000000 0.4500000000 
H 9.7500000000 5.4300000000 9.5400000000 
H 0.3400000000 5.4700000000 1.1100000000 
O 4.7200000000 6.2800000000 6.2700000000 
H 5.7100000000 6.5900000000 6.3400000000 
H 4.8900000000 5.3800000000 5.8200000000 
O 6.5200000000 1.3700000000 8.5200000000 
H 5.8000000000 2.0600000000 8.4300000000 
H 6.0600000000 0.5000000000 8.3800000000 
O 5.4300000000 4.2300000000 0.2600000000 
H 5.6200000000 3.7400000000 1.0800000000 
H 4.8600000000 3.6800000000 9.5700000000 
O 8.4300000000 0.4200000000 3.1800000000 
H 9.1600000000 9.6200000000 3.2200000000 
H 7.7100000000 9.8600000000 3.6600000000 
O 3.0500000000 8.4800000000 2.3300000000 
H 3.1000000000 9.1700000000 1.6600000000 
H 3.9600000000 8.2200000000 2.1400000000 
O 3.6600000000 8.6000000000 5.2300000000 
H 3.7800000000 7.6500000000 5.5600000000 
H 3.2500000000 8.4500000000 4.3600000000 
O 7.3300000000 7.3800000000 0.2500000000 
H 6.7900000000 6.6400000000 9.7700000000 
H 8.1500000000 6.9200000000 0.5500000000 
O 2.2600000000 5.9500000000 4.3400000000 
H 2.5200000000 5.9000000000 3.4000000000 
H 2.6600000000 5.1800000000 4.7500000000 
O 7.4800000000 5.1500000000 8.4800000000 
H 6.8500000000 4.5700000000 8.9800000000 
H 8.2600000000 4.5700000000 8.2300000000 
O 9.2400000000 1.3100000000 7.5000000000 
H 9.6800000000 0.5900000000 8.0700000000 
H 8.3200000000 1.2800000000 7.8700000000 
O 2.8900000000 2.5300000000 1.5800000000 
H 2.6100000000 1.7500000000 1.0100000000 
H 3.4300000000 2.0200000000 2.2600000000 
O 2.5200000000 1.3100000000 6.2400000000 
H 2.8500000000 0.4400000000 5.8800000000 
H 1.5400000000 1.1400000000 6.3700000000 
O 3.5000000000 3.6600000000 4.8700000000 
H 3.3800000000 2.7000000000 4.8900000000 
H 4.4100000000 3.7200000000 4.5000000000 
O 9.2200000000 9.4800000000 0.2000000000 
H 8.5600000000 8.7600000000 9.8100000000 
H 8.6800000000 0.2200000000 0.7700000000 
O 4.5600000000 1.0100000000 3.4500000000 
H 5.1800000000 0.9400000000 4.2100000000 
H 5.0500000000 0.4200000000 2.7500000000 
O 2.8400000000 5.3600000000 1.3500000000 
H 3.6600000000 5.3100000000 0.8300000000 
H 2.6600000000 4.4100000000 1.4800000000 
O 2.2900000000 4.4900000000 7.1400000000 
H 2.6500000000 3.9300000000 6.3800000000 
H 2.7800000000 5.3200000000 6.9600000000 
O 7.5400000000 3.1400000000 2.2800000000 
H 7.9000000000 2.2300000000 2.1700000000 
H 8.3500000000 3.6400000000 2.0500000000 
O 6.2800000000 9.2800000000 4.8800000000 
H 5.3800000000 8.8300000000 4.8800000000 
H 6.8400000000 8.8100000000 5.5600000000 
O 2.3400000000 7.6600000000 9.5400000000 
H 2.3500000000 6.8100000000 0.1900000000 
H 1.4600000000 7.6700000000 9.2600000000 
O 9.0300000000 2.5000000000 4.9100000000 
H 9.0500000000 1.9600000000 5.7300000000 
H 8.6300000000 1.8900000000 4.3400000000 
O 0.4600000000 3.3900000000 2.4000000000 
H 1.3700000000 2.9200000000 2.2800000000 
H 0.2900000000 3.3100000000 3.4200000000 
O 0.1500000000 7.1500000000 5.4800000000 
H 0.9600000000 6.6100000000 5.3200000000 
H 9.7600000000 7.4400000000 4.5400000000 
O 6.1500000000 4.0300000000 4.4800000000 
H 6.3300000000 3.7000000000 3.5600000000 
H 7.1300000000 4.0500000000 4.7900000000 
O 0.3400000000 8.1900000000 2.7600000000 
H 1.2900000000 8.1800000000 3.0000000000 
H 0.2400000000 7.5600000000 2.0200000000 
O 5.4600000000 9.2700000000 1.3500000000 
H 5.0400000000 9.2600000000 0.4100000000 
H 6.2200000000 8.6500000000 1.1600000000 

