&CONTROL
/
&SYSTEM
   ntyp             = 2
   nat              = 96
   ibrav            = 0
/
&ELECTRONS
/
&IONS
/
&CELL
/

ATOMIC_SPECIES
O 15.999 None
H 1.008 None

K_POINTS gamma

CELL_PARAMETERS angstrom
9.86520000000000 0.00000000000000 0.00000000000000
0.00000000000000 9.86520000000000 0.00000000000000
0.00000000000000 0.00000000000000 9.86520000000000

ATOMIC_POSITIONS angstrom
O 3.3900000000 4.7100000000 8.8000000000 
H 4.0400000000 5.4400000000 8.8200000000 
H 2.5200000000 5.1200000000 8.4800000000 
O 5.0600000000 9.5800000000 2.5000000000 
H 5.2600000000 0.6000000000 2.8900000000 
H 4.4700000000 9.7800000000 1.7700000000 
O 5.5200000000 6.4500000000 5.7900000000 
H 5.3200000000 7.1700000000 6.4000000000 
H 4.7000000000 6.3700000000 5.2500000000 
O 9.5000000000 6.4300000000 1.0000000000 
H 8.7000000000 6.6900000000 0.7400000000 
H 0.2300000000 7.2400000000 0.8800000000 
O 7.5200000000 2.6400000000 4.4900000000 
H 6.7500000000 2.9500000000 3.9400000000 
H 8.2900000000 3.0600000000 4.0400000000 
O 4.8100000000 2.5600000000 3.7600000000 
H 4.8600000000 3.4000000000 3.2300000000 
H 4.7700000000 3.0200000000 4.7000000000 
O 8.4400000000 9.2400000000 6.4000000000 
H 8.4400000000 9.0700000000 5.3700000000 
H 8.4600000000 8.3100000000 6.7700000000 
O 8.1900000000 7.2400000000 4.3800000000 
H 7.9100000000 7.2900000000 3.4400000000 
H 7.4100000000 6.9700000000 4.8100000000 
O 1.3900000000 3.2600000000 6.1100000000 
H 1.7500000000 4.1300000000 6.3000000000 
H 1.3600000000 3.1400000000 5.1400000000 
O 1.4100000000 8.5500000000 1.3200000000 
H 2.0100000000 9.2600000000 0.8600000000 
H 1.9500000000 7.8400000000 1.6400000000 
O 5.0200000000 1.1000000000 8.4800000000 
H 5.7100000000 1.6600000000 8.9500000000 
H 5.4500000000 0.9400000000 7.5500000000 
O 9.8000000000 0.4800000000 8.4500000000 
H 9.2800000000 0.0700000000 7.6900000000 
H 0.9000000000 0.4300000000 8.1200000000 
O 1.0300000000 1.5100000000 3.3900000000 
H 1.5700000000 0.7100000000 3.1700000000 
H 1.5700000000 2.1900000000 2.8600000000 
O 3.6300000000 8.3200000000 8.2900000000 
H 3.5300000000 9.2700000000 8.1900000000 
H 2.7300000000 8.0500000000 8.1500000000 
O 8.6700000000 9.3700000000 0.8200000000 
H 9.5400000000 9.1500000000 1.2400000000 
H 8.9300000000 9.6700000000 9.7900000000 
O 3.2300000000 0.7000000000 0.5700000000 
H 3.8100000000 0.9300000000 9.7000000000 
H 2.8900000000 1.5600000000 0.8600000000 
O 3.5000000000 9.4900000000 4.6100000000 
H 4.1500000000 9.6300000000 3.8000000000 
H 4.1000000000 9.8200000000 5.3600000000 
O 5.8600000000 0.5600000000 5.9900000000 
H 6.6900000000 0.2600000000 6.3900000000 
H 6.2700000000 1.2900000000 5.3600000000 
O 0.5100000000 5.8800000000 4.9800000000 
H 9.4900000000 6.4400000000 5.0100000000 
H 0.3100000000 5.5000000000 4.0900000000 
O 5.1800000000 4.4100000000 1.5200000000 
H 5.6100000000 4.0000000000 0.7500000000 
H 5.7900000000 5.1300000000 1.7900000000 
O 1.5100000000 6.5700000000 7.6200000000 
H 1.2000000000 6.4700000000 6.7100000000 
H 0.5800000000 6.5400000000 7.9400000000 
O 2.5000000000 3.3600000000 1.4100000000 
H 2.3200000000 3.4700000000 0.4800000000 
H 3.4700000000 3.5800000000 1.6300000000 
O 4.9800000000 3.6300000000 6.2800000000 
H 5.3400000000 4.5100000000 6.3900000000 
H 4.4400000000 3.4300000000 7.1000000000 
O 6.1600000000 7.0400000000 8.9100000000 
H 5.3100000000 7.4700000000 8.6200000000 
H 6.1200000000 7.0000000000 0.0000000000 
O 8.4700000000 6.5000000000 7.4800000000 
H 8.5200000000 5.5300000000 7.4500000000 
H 7.6400000000 6.5000000000 8.0200000000 
O 6.7100000000 2.8700000000 9.5300000000 
H 6.9800000000 3.0700000000 8.5900000000 
H 7.5900000000 2.8500000000 0.2000000000 
O 2.2300000000 0.6800000000 6.8100000000 
H 2.0500000000 1.6400000000 6.8000000000 
H 2.2900000000 0.4800000000 5.8300000000 
O 3.0900000000 6.4700000000 4.7500000000 
H 2.7500000000 7.3600000000 5.0000000000 
H 2.2600000000 5.9600000000 4.7400000000 
O 8.2100000000 3.5000000000 7.1100000000 
H 7.8200000000 3.1600000000 6.2300000000 
H 9.1400000000 3.5300000000 6.8200000000 
O 9.5100000000 2.4500000000 0.3900000000 
H 9.6200000000 1.8600000000 9.4200000000 
H 9.4600000000 1.8200000000 1.1400000000 
O 9.5500000000 4.2300000000 2.6200000000 
H 0.1900000000 3.6000000000 2.0600000000 
H 9.6000000000 4.9800000000 1.9500000000 
O 6.8500000000 7.5400000000 1.9300000000 
H 6.0000000000 8.0300000000 2.2500000000 
H 7.4200000000 8.3100000000 1.5600000000 

