&CONTROL
/
&SYSTEM
   ntyp             = 2
   nat              = 96
   ibrav            = 0
/
&ELECTRONS
/
&IONS
/
&CELL
/

ATOMIC_SPECIES
O 15.999 None
H 1.008 None

K_POINTS gamma

CELL_PARAMETERS angstrom
9.86520000000000 0.00000000000000 0.00000000000000
0.00000000000000 9.86520000000000 0.00000000000000
0.00000000000000 0.00000000000000 9.86520000000000

ATOMIC_POSITIONS angstrom
O 2.1700000000 7.0900000000 6.3500000000 
H 2.6100000000 6.4700000000 5.6700000000 
H 1.4900000000 7.5300000000 5.8400000000 
O 1.1200000000 3.4200000000 1.5100000000 
H 0.2900000000 3.0000000000 1.2700000000 
H 1.3000000000 4.0400000000 0.7900000000 
O 5.3200000000 7.7900000000 2.1200000000 
H 5.6700000000 7.7800000000 1.2100000000 
H 4.3800000000 7.8100000000 1.9100000000 
O 2.4300000000 9.5200000000 3.4800000000 
H 2.4800000000 8.6600000000 2.9400000000 
H 1.5200000000 9.5900000000 3.7000000000 
O 9.2800000000 8.1400000000 5.6000000000 
H 8.9300000000 8.9500000000 6.1300000000 
H 8.3900000000 7.7800000000 5.2400000000 
O 3.6000000000 4.2500000000 9.4700000000 
H 3.8700000000 3.8900000000 8.6100000000 
H 4.0300000000 3.6800000000 0.2500000000 
O 7.2600000000 7.3700000000 4.0500000000 
H 6.6700000000 7.5400000000 3.2600000000 
H 7.1000000000 6.4300000000 4.3000000000 
O 2.7600000000 7.2600000000 1.6900000000 
H 1.8900000000 7.1100000000 2.0800000000 
H 2.5700000000 7.2600000000 0.7000000000 
O 8.2300000000 3.2200000000 7.3900000000 
H 8.6500000000 4.0400000000 7.1400000000 
H 8.3000000000 2.6700000000 6.5600000000 
O 6.6800000000 1.5600000000 5.3600000000 
H 5.6900000000 1.8800000000 5.2900000000 
H 6.8300000000 1.2300000000 4.4700000000 
O 0.1700000000 7.1600000000 2.5200000000 
H 9.5700000000 7.0400000000 3.4300000000 
H 9.5000000000 6.5300000000 2.0700000000 
O 4.2700000000 9.1200000000 9.2400000000 
H 4.4500000000 8.4400000000 8.5700000000 
H 3.3400000000 9.2200000000 9.1900000000 
O 8.5800000000 2.1500000000 0.2400000000 
H 8.8300000000 2.5000000000 9.2100000000 
H 7.5800000000 1.9800000000 0.1400000000 
O 8.3200000000 5.6000000000 1.2500000000 
H 7.7100000000 4.8400000000 1.5400000000 
H 7.7900000000 5.9600000000 0.5400000000 
O 3.7000000000 2.6500000000 2.0600000000 
H 2.7800000000 2.9300000000 1.8800000000 
H 3.5300000000 1.6500000000 2.1900000000 
O 6.3500000000 4.8000000000 4.4800000000 
H 6.7600000000 4.3000000000 5.2200000000 
H 6.5200000000 4.2500000000 3.6900000000 
O 1.0200000000 4.0100000000 4.2300000000 
H 1.9400000000 4.3500000000 4.3400000000 
H 0.8800000000 3.8600000000 3.3300000000 
O 5.3800000000 3.5300000000 7.4300000000 
H 5.1600000000 3.1700000000 6.5200000000 
H 6.3700000000 3.7300000000 7.4900000000 
O 4.8900000000 7.1700000000 7.2900000000 
H 5.3900000000 6.6000000000 7.8700000000 
H 5.0600000000 6.9100000000 6.3500000000 
O 4.0200000000 2.2400000000 5.1000000000 
H 3.8800000000 2.0700000000 4.0800000000 
H 3.3700000000 1.5800000000 5.5500000000 
O 9.1400000000 5.4800000000 6.1300000000 
H 9.8500000000 4.9800000000 5.5200000000 
H 9.4200000000 6.4500000000 6.2200000000 
O 3.6900000000 5.6700000000 4.4200000000 
H 4.6000000000 5.3300000000 4.5400000000 
H 3.7100000000 6.1100000000 3.5700000000 
O 1.3700000000 9.2800000000 8.9000000000 
H 1.1700000000 8.3000000000 8.9100000000 
H 0.5800000000 9.5300000000 9.4000000000 
O 2.4600000000 0.2700000000 6.4600000000 
H 2.2900000000 0.0100000000 7.3800000000 
H 3.0400000000 9.3500000000 6.1200000000 
O 7.4400000000 9.5100000000 7.2400000000 
H 7.3700000000 0.1200000000 6.3900000000 
H 7.8700000000 0.3100000000 7.7700000000 
O 9.3100000000 9.2500000000 1.0300000000 
H 8.8800000000 0.1200000000 1.5300000000 
H 9.5600000000 8.4900000000 1.7100000000 
O 7.3700000000 7.9100000000 9.3800000000 
H 8.0300000000 8.5000000000 9.8400000000 
H 7.2200000000 8.3600000000 8.5200000000 
O 6.0400000000 1.4500000000 9.5100000000 
H 5.6000000000 0.6000000000 9.3400000000 
H 5.6100000000 2.0200000000 8.8400000000 
O 0.2000000000 1.2500000000 5.0700000000 
H 1.0100000000 0.7000000000 5.4200000000 
H 0.4700000000 2.1900000000 4.9400000000 
O 6.7300000000 3.4200000000 2.1300000000 
H 7.1700000000 2.5700000000 2.0500000000 
H 5.8600000000 3.3800000000 1.6300000000 
O 7.2400000000 0.4200000000 3.0000000000 
H 6.5200000000 0.0300000000 2.4700000000 
H 7.3200000000 9.4400000000 3.5300000000 
O 2.1900000000 6.6200000000 9.0100000000 
H 2.7100000000 5.7600000000 8.8400000000 
H 2.2300000000 6.8500000000 8.0800000000 

