&CONTROL
/
&SYSTEM
   ntyp             = 2
   nat              = 96
   ibrav            = 0
/
&ELECTRONS
/
&IONS
/
&CELL
/

ATOMIC_SPECIES
O 15.999 None
H 1.008 None

K_POINTS gamma

CELL_PARAMETERS angstrom
9.86520000000000 0.00000000000000 0.00000000000000
0.00000000000000 9.86520000000000 0.00000000000000
0.00000000000000 0.00000000000000 9.86520000000000

ATOMIC_POSITIONS angstrom
O 8.3400000000 3.7900000000 7.2900000000 
H 8.7000000000 4.2200000000 6.5000000000 
H 7.4100000000 3.9200000000 7.0900000000 
O 3.0200000000 2.5600000000 8.2300000000 
H 2.6400000000 3.2400000000 7.6500000000 
H 2.6300000000 2.7700000000 9.1600000000 
O 9.4000000000 4.3600000000 4.3800000000 
H 8.8500000000 4.9500000000 3.8000000000 
H 9.2900000000 3.4700000000 3.8600000000 
O 4.3700000000 7.3600000000 3.2900000000 
H 4.8200000000 7.4600000000 4.1000000000 
H 3.5900000000 6.7500000000 3.3500000000 
O 1.2400000000 2.0300000000 3.6600000000 
H 2.1000000000 1.5600000000 3.7500000000 
H 0.7800000000 1.8000000000 4.4600000000 
O 2.3800000000 0.5500000000 6.5600000000 
H 2.7400000000 1.1700000000 7.2900000000 
H 1.5000000000 0.2300000000 6.7400000000 
O 1.9300000000 1.2500000000 1.0300000000 
H 1.0800000000 1.3900000000 0.5900000000 
H 1.7200000000 1.4900000000 1.9800000000 
O 8.9200000000 1.4900000000 0.2600000000 
H 8.9800000000 0.5600000000 9.8300000000 
H 8.0000000000 1.5000000000 0.6900000000 
O 2.4200000000 5.2600000000 8.3100000000 
H 1.7900000000 5.6500000000 7.6700000000 
H 1.8200000000 4.7900000000 8.9200000000 
O 1.8400000000 8.1600000000 8.7100000000 
H 2.3500000000 7.3000000000 8.6000000000 
H 2.5300000000 8.8400000000 9.0700000000 
O 0.9900000000 6.0100000000 6.3000000000 
H 1.2500000000 6.8000000000 5.7700000000 
H 0.4800000000 5.5100000000 5.6900000000 
O 9.4700000000 0.7800000000 5.7100000000 
H 9.0300000000 9.8400000000 5.8200000000 
H 8.7800000000 1.3900000000 5.5500000000 
O 5.3700000000 5.2700000000 8.5200000000 
H 5.4800000000 5.9700000000 9.1400000000 
H 4.3900000000 5.3700000000 8.4200000000 
O 7.2400000000 7.5900000000 7.6100000000 
H 6.6400000000 6.7700000000 7.5200000000 
H 6.6600000000 8.2300000000 7.2200000000 
O 6.3200000000 3.3100000000 0.5600000000 
H 6.3500000000 3.6300000000 9.5200000000 
H 5.3900000000 3.3500000000 0.8500000000 
O 2.1500000000 5.5100000000 3.3000000000 
H 1.5600000000 4.8100000000 3.7400000000 
H 1.5200000000 6.0400000000 2.7900000000 
O 0.3600000000 3.8900000000 9.4500000000 
H 9.7900000000 4.0900000000 8.5900000000 
H 9.7900000000 3.0500000000 9.6000000000 
O 3.3400000000 0.3800000000 3.4900000000 
H 3.3800000000 9.6900000000 4.2900000000 
H 3.5100000000 9.6200000000 2.6900000000 
O 3.7700000000 9.8100000000 9.5700000000 
H 3.0900000000 0.4300000000 0.3900000000 
H 4.2600000000 0.6800000000 9.2200000000 
O 7.2900000000 1.8900000000 4.5000000000 
H 6.9000000000 1.4400000000 3.7700000000 
H 6.6300000000 2.6400000000 4.5200000000 
O 3.8000000000 4.4000000000 1.4000000000 
H 3.0200000000 4.4100000000 2.0000000000 
H 4.1500000000 5.3000000000 1.4400000000 
O 7.8000000000 5.6100000000 2.2700000000 
H 8.6000000000 5.8200000000 1.7200000000 
H 7.2900000000 4.8600000000 1.8400000000 
O 1.0200000000 8.3800000000 4.6600000000 
H 1.0200000000 9.3500000000 4.9100000000 
H 0.1800000000 8.3000000000 4.1600000000 
O 6.5000000000 0.5700000000 7.2700000000 
H 7.2000000000 0.9600000000 7.8900000000 
H 6.6100000000 1.1200000000 6.4700000000 
O 0.2300000000 6.2000000000 1.2100000000 
H 0.2800000000 5.4800000000 0.5800000000 
H 0.0600000000 7.0300000000 0.7500000000 
O 6.6100000000 9.7600000000 2.4500000000 
H 6.8300000000 8.9600000000 2.9700000000 
H 6.0600000000 9.4500000000 1.6700000000 
O 4.6800000000 2.9700000000 3.8900000000 
H 4.7200000000 3.5400000000 3.1000000000 
H 4.1600000000 2.2200000000 3.7000000000 
O 9.1700000000 8.5400000000 9.4300000000 
H 8.5200000000 8.1700000000 8.7900000000 
H 0.2300000000 8.4700000000 8.9400000000 
O 6.0300000000 4.4200000000 5.8900000000 
H 5.1400000000 4.2800000000 5.3900000000 
H 5.7500000000 4.5900000000 6.7800000000 
O 4.4900000000 8.5400000000 6.0300000000 
H 3.5100000000 8.5200000000 6.2700000000 
H 4.9100000000 9.4300000000 6.2300000000 
O 8.4600000000 8.0800000000 3.3700000000 
H 7.8700000000 7.2900000000 3.2100000000 
H 8.6900000000 8.4800000000 2.5200000000 
O 5.0500000000 7.5500000000 0.5200000000 
H 4.4200000000 8.2300000000 0.1600000000 
H 4.9200000000 7.5500000000 1.4800000000 

