&CONTROL
/
&SYSTEM
   ntyp             = 2
   nat              = 96
   ibrav            = 0
/
&ELECTRONS
/
&IONS
/
&CELL
/

ATOMIC_SPECIES
O 15.999 None
H 1.008 None

K_POINTS gamma

CELL_PARAMETERS angstrom
9.86520000000000 0.00000000000000 0.00000000000000
0.00000000000000 9.86520000000000 0.00000000000000
0.00000000000000 0.00000000000000 9.86520000000000

ATOMIC_POSITIONS angstrom
O 3.3000000000 4.5000000000 5.4200000000 
H 2.7000000000 4.0100000000 6.0200000000 
H 2.8200000000 4.6400000000 4.5700000000 
O 6.5400000000 7.6400000000 5.0300000000 
H 7.5000000000 7.8500000000 4.9500000000 
H 6.2000000000 8.5700000000 4.9200000000 
O 8.1600000000 5.0600000000 1.5500000000 
H 7.9300000000 4.2000000000 1.0400000000 
H 7.3600000000 5.2100000000 2.0500000000 
O 9.2200000000 0.4000000000 0.8700000000 
H 0.1700000000 0.9100000000 0.5900000000 
H 9.3900000000 9.3200000000 0.7300000000 
O 9.4400000000 7.3800000000 1.1800000000 
H 0.1700000000 6.7200000000 0.8000000000 
H 8.8100000000 6.7500000000 1.6100000000 
O 7.5400000000 8.7300000000 7.8400000000 
H 8.3400000000 9.3000000000 7.5200000000 
H 6.7800000000 9.3900000000 7.7700000000 
O 1.6300000000 8.7800000000 5.6000000000 
H 2.5000000000 8.3600000000 5.7500000000 
H 1.6800000000 8.9000000000 4.5800000000 
O 6.5700000000 7.9200000000 0.4000000000 
H 6.9000000000 8.1400000000 9.3800000000 
H 7.3600000000 8.1800000000 1.0100000000 
O 9.6400000000 0.4500000000 6.9000000000 
H 9.5300000000 1.3000000000 6.3900000000 
H 0.4100000000 9.8400000000 6.3000000000 
O 3.9300000000 7.2100000000 5.9000000000 
H 4.8200000000 7.3500000000 5.4700000000 
H 3.7200000000 6.2800000000 5.6500000000 
O 4.8800000000 1.7500000000 0.8200000000 
H 4.2300000000 2.4300000000 1.1500000000 
H 4.3300000000 0.9200000000 0.8800000000 
O 1.8400000000 6.4200000000 9.2000000000 
H 2.3500000000 7.2800000000 8.8900000000 
H 2.6200000000 5.7400000000 9.3400000000 
O 5.8100000000 5.3500000000 7.1000000000 
H 6.1100000000 6.0900000000 6.5200000000 
H 5.4700000000 5.8000000000 7.8900000000 
O 1.3300000000 8.5800000000 2.9500000000 
H 0.5800000000 8.0900000000 2.4500000000 
H 2.0400000000 8.6600000000 2.2400000000 
O 3.5200000000 8.5100000000 8.3100000000 
H 3.5200000000 8.1500000000 7.3000000000 
H 4.4600000000 8.9700000000 8.2700000000 
O 5.0800000000 2.6500000000 6.2500000000 
H 5.7200000000 3.2400000000 6.7300000000 
H 4.5700000000 3.4100000000 5.9000000000 
O 3.8100000000 4.3100000000 2.3200000000 
H 4.6000000000 4.5700000000 2.8700000000 
H 3.3700000000 3.5700000000 2.8100000000 
O 1.5600000000 3.2400000000 7.1000000000 
H 0.6600000000 3.4400000000 7.5300000000 
H 2.0700000000 2.9800000000 7.9100000000 
O 9.1300000000 3.2000000000 8.5000000000 
H 8.7800000000 4.1200000000 8.3800000000 
H 8.5900000000 2.7800000000 9.2200000000 
O 5.4200000000 0.8300000000 8.2500000000 
H 5.3500000000 1.3400000000 9.1100000000 
H 5.4100000000 1.5300000000 7.5600000000 
O 0.7300000000 4.7900000000 3.5800000000 
H 0.2200000000 4.9300000000 2.7600000000 
H 0.4000000000 5.5600000000 4.1300000000 
O 9.2100000000 6.5400000000 7.8200000000 
H 8.5500000000 7.1900000000 8.0900000000 
H 0.1100000000 6.6400000000 8.4700000000 
O 4.4400000000 5.7700000000 0.0600000000 
H 4.0900000000 5.2800000000 0.8900000000 
H 5.2200000000 6.3100000000 0.4000000000 
O 5.6100000000 0.3900000000 4.6000000000 
H 5.3900000000 1.1800000000 5.1300000000 
H 6.4900000000 0.5900000000 4.1800000000 
O 0.5400000000 1.9200000000 4.5900000000 
H 0.9100000000 2.3500000000 5.3400000000 
H 1.0500000000 2.2800000000 3.8100000000 
O 7.4200000000 2.5100000000 0.6700000000 
H 6.5400000000 2.1800000000 0.9300000000 
H 7.9100000000 1.6700000000 0.7400000000 
O 6.1000000000 5.5100000000 3.4700000000 
H 6.3400000000 5.1000000000 4.2900000000 
H 6.0000000000 6.4400000000 3.6200000000 
O 8.1700000000 0.6900000000 3.4800000000 
H 8.8200000000 1.2300000000 3.9000000000 
H 8.6800000000 0.4800000000 2.6500000000 
O 3.3600000000 1.6500000000 3.4700000000 
H 2.7800000000 0.8600000000 3.5900000000 
H 4.2700000000 1.2500000000 3.6500000000 
O 1.3900000000 1.0700000000 9.1000000000 
H 0.6600000000 0.9200000000 8.4100000000 
H 2.0700000000 0.5400000000 8.7200000000 
O 3.5500000000 8.8000000000 1.2600000000 
H 4.4800000000 8.6300000000 1.3800000000 
H 3.4800000000 8.7100000000 0.2500000000 
O 9.4600000000 6.7200000000 5.2000000000 
H 0.1700000000 7.5100000000 5.2300000000 
H 9.4500000000 6.3600000000 6.1400000000 

