&CONTROL
/
&SYSTEM
   ntyp             = 2
   nat              = 96
   ibrav            = 0
/
&ELECTRONS
/
&IONS
/
&CELL
/

ATOMIC_SPECIES
O 15.999 None
H 1.008 None

K_POINTS gamma

CELL_PARAMETERS angstrom
9.86520000000000 0.00000000000000 0.00000000000000
0.00000000000000 9.86520000000000 0.00000000000000
0.00000000000000 0.00000000000000 9.86520000000000

ATOMIC_POSITIONS angstrom
O 2.4500000000 4.9600000000 9.3600000000 
H 2.1500000000 4.4500000000 8.5100000000 
H 1.8000000000 5.6700000000 9.4600000000 
O 5.5400000000 1.4600000000 2.3800000000 
H 6.3000000000 2.0800000000 2.3100000000 
H 4.9700000000 1.8100000000 1.7100000000 
O 7.0900000000 5.7000000000 6.1500000000 
H 7.3200000000 6.2600000000 5.3500000000 
H 6.2000000000 5.9900000000 6.2200000000 
O 1.0200000000 7.2400000000 0.0300000000 
H 0.1700000000 7.0500000000 0.4800000000 
H 1.1800000000 8.1700000000 0.3400000000 
O 8.2900000000 2.6600000000 4.6800000000 
H 7.3700000000 2.4500000000 4.3900000000 
H 8.7100000000 3.0600000000 3.9100000000 
O 5.2000000000 5.4700000000 2.3400000000 
H 5.9700000000 4.8200000000 2.4700000000 
H 5.4800000000 6.3200000000 1.9200000000 
O 6.8600000000 9.6000000000 6.1100000000 
H 6.4700000000 8.7800000000 5.7500000000 
H 6.3600000000 0.3900000000 5.6700000000 
O 8.3600000000 6.9700000000 3.6700000000 
H 8.7200000000 6.6400000000 2.8000000000 
H 7.8000000000 7.7500000000 3.3400000000 
O 9.5400000000 0.5500000000 5.8700000000 
H 9.1600000000 1.4500000000 5.5500000000 
H 8.7300000000 0.1100000000 6.1700000000 
O 3.4500000000 8.6300000000 2.6700000000 
H 3.5700000000 9.1600000000 1.8600000000 
H 2.6200000000 9.0200000000 3.0100000000 
O 4.4300000000 3.0500000000 0.3200000000 
H 3.8300000000 3.8000000000 0.4000000000 
H 5.2900000000 3.5300000000 0.1600000000 
O 0.0900000000 9.3400000000 8.3300000000 
H 0.4000000000 9.7900000000 7.4900000000 
H 0.5300000000 8.4600000000 8.3000000000 
O 0.7700000000 9.5700000000 3.5300000000 
H 0.4000000000 0.0300000000 4.4000000000 
H 0.3700000000 0.2900000000 2.8700000000 
O 3.0900000000 8.4400000000 6.3700000000 
H 2.9900000000 9.3500000000 6.4800000000 
H 2.2300000000 8.0300000000 6.0000000000 
O 7.2100000000 9.0200000000 8.8600000000 
H 6.9100000000 8.9100000000 7.8800000000 
H 8.2300000000 9.0100000000 8.8500000000 
O 3.2800000000 0.5600000000 0.4200000000 
H 2.9200000000 0.3900000000 9.3400000000 
H 3.6700000000 1.4600000000 0.2600000000 
O 5.0600000000 7.7000000000 4.6400000000 
H 4.4100000000 7.6300000000 3.9400000000 
H 4.4200000000 7.6600000000 5.4500000000 
O 4.9600000000 1.6300000000 5.3200000000 
H 4.8200000000 2.5800000000 5.1600000000 
H 4.9700000000 1.2600000000 4.3700000000 
O 0.7100000000 7.2900000000 5.1600000000 
H 9.6500000000 7.1900000000 4.8200000000 
H 0.9700000000 8.0600000000 4.6400000000 
O 7.2300000000 3.5300000000 2.0200000000 
H 8.1200000000 3.9300000000 2.1600000000 
H 7.0700000000 3.7000000000 1.0800000000 
O 1.3900000000 3.3800000000 7.4400000000 
H 1.3500000000 3.9000000000 6.5700000000 
H 0.4300000000 3.4400000000 7.7000000000 
O 2.4100000000 5.4800000000 2.4100000000 
H 2.2500000000 6.3100000000 1.9200000000 
H 3.4000000000 5.3100000000 2.3100000000 
O 4.2800000000 4.0400000000 4.3900000000 
H 4.4300000000 4.4700000000 3.5100000000 
H 3.3500000000 4.2000000000 4.7700000000 
O 4.8600000000 6.0100000000 8.2400000000 
H 4.7500000000 6.9800000000 8.3400000000 
H 4.1300000000 5.5800000000 8.8800000000 
O 8.3000000000 6.3700000000 1.2000000000 
H 7.8300000000 5.8500000000 0.4800000000 
H 7.6400000000 7.0700000000 1.3100000000 
O 6.9800000000 4.4300000000 9.3800000000 
H 6.4600000000 5.0200000000 8.7500000000 
H 7.4400000000 3.9600000000 8.7000000000 
O 2.9500000000 1.1700000000 7.4900000000 
H 3.6500000000 1.4700000000 6.9100000000 
H 2.4400000000 2.0800000000 7.5000000000 
O 1.5100000000 4.7100000000 5.2000000000 
H 1.2500000000 5.6800000000 5.2400000000 
H 1.2000000000 4.5900000000 4.2800000000 
O 8.4400000000 3.6000000000 7.3800000000 
H 8.0000000000 4.3200000000 6.8500000000 
H 8.5700000000 2.9200000000 6.6400000000 
O 0.3600000000 1.2000000000 1.3600000000 
H 9.8100000000 0.7300000000 0.6500000000 
H 1.1800000000 1.3600000000 0.8900000000 
O 0.0400000000 3.6700000000 2.5000000000 
H 0.1500000000 2.8200000000 2.1100000000 
H 0.7900000000 4.2800000000 2.1300000000 
O 6.4500000000 8.3500000000 1.5200000000 
H 6.1400000000 9.2600000000 1.8300000000 
H 6.5600000000 8.5800000000 0.5600000000 

