&CONTROL
/
&SYSTEM
   ntyp             = 2
   nat              = 96
   ibrav            = 0
/
&ELECTRONS
/
&IONS
/
&CELL
/

ATOMIC_SPECIES
O 15.999 None
H 1.008 None

K_POINTS gamma

CELL_PARAMETERS angstrom
9.86520000000000 0.00000000000000 0.00000000000000
0.00000000000000 9.86520000000000 0.00000000000000
0.00000000000000 0.00000000000000 9.86520000000000

ATOMIC_POSITIONS angstrom
O 6.8300000000 6.5900000000 5.3900000000 
H 7.3100000000 6.0700000000 4.6500000000 
H 7.4800000000 7.3200000000 5.4600000000 
O 1.6900000000 2.5300000000 3.4000000000 
H 0.9700000000 1.8500000000 3.1400000000 
H 2.4200000000 2.2400000000 2.7400000000 
O 6.4100000000 2.2600000000 4.3300000000 
H 5.4800000000 2.5100000000 4.5800000000 
H 6.3100000000 1.5000000000 3.7500000000 
O 2.2100000000 7.1500000000 0.8800000000 
H 2.1900000000 8.1200000000 0.6500000000 
H 1.6600000000 6.8200000000 0.1300000000 
O 3.2900000000 8.0600000000 5.1100000000 
H 3.0100000000 7.1300000000 5.2200000000 
H 2.3700000000 8.4900000000 5.1200000000 
O 5.3600000000 9.4800000000 3.4900000000 
H 5.3500000000 9.4000000000 2.4900000000 
H 4.6800000000 8.8400000000 3.7700000000 
O 5.5000000000 1.7200000000 9.1000000000 
H 5.2500000000 1.7500000000 8.2000000000 
H 5.3400000000 2.5700000000 9.4000000000 
O 8.2200000000 5.1600000000 3.4300000000 
H 8.3900000000 4.2900000000 3.7500000000 
H 9.1200000000 5.3400000000 3.0000000000 
O 0.8400000000 1.5200000000 9.5300000000 
H 1.1700000000 0.6700000000 9.0700000000 
H 1.4600000000 1.6400000000 0.4100000000 
O 1.2700000000 9.1100000000 7.8500000000 
H 1.1900000000 9.2200000000 6.8700000000 
H 0.7500000000 8.3700000000 7.9600000000 
O 1.5600000000 3.1600000000 6.0900000000 
H 1.4000000000 2.9300000000 5.0800000000 
H 0.6700000000 2.8700000000 6.4200000000 
O 8.7100000000 1.9200000000 5.8200000000 
H 8.4700000000 2.2200000000 6.6900000000 
H 7.8800000000 2.1000000000 5.3400000000 
O 5.3400000000 4.6400000000 6.6700000000 
H 5.5900000000 4.8500000000 7.6100000000 
H 5.8800000000 5.2000000000 6.0400000000 
O 4.3100000000 2.1700000000 6.6000000000 
H 4.5100000000 3.1100000000 6.4600000000 
H 3.3600000000 2.2500000000 6.5000000000 
O 8.3600000000 8.5200000000 3.6300000000 
H 8.1700000000 7.6900000000 3.1600000000 
H 7.5200000000 8.9800000000 3.7800000000 
O 2.6600000000 5.5200000000 5.8400000000 
H 3.4000000000 5.1800000000 6.3200000000 
H 2.0400000000 4.7100000000 5.8400000000 
O 3.5500000000 2.1900000000 1.3300000000 
H 4.1900000000 1.7100000000 0.6700000000 
H 4.1700000000 2.8900000000 1.7300000000 
O 1.3400000000 4.0000000000 8.8300000000 
H 1.5500000000 3.6900000000 7.8800000000 
H 1.2400000000 3.1800000000 9.3400000000 
O 3.5200000000 9.0900000000 9.2700000000 
H 4.1400000000 9.6800000000 8.8200000000 
H 2.8300000000 8.9800000000 8.6300000000 
O 9.7100000000 0.9300000000 2.4300000000 
H 9.0700000000 0.8600000000 1.6300000000 
H 9.4300000000 0.1200000000 2.8900000000 
O 5.3800000000 8.2800000000 1.0700000000 
H 4.4400000000 8.4300000000 0.7400000000 
H 5.8500000000 8.0300000000 0.2100000000 
O 4.2200000000 3.7700000000 3.6600000000 
H 4.4500000000 4.6800000000 3.4100000000 
H 3.2400000000 3.7300000000 3.6600000000 
O 0.4800000000 9.4000000000 5.2400000000 
H 9.8300000000 0.3900000000 5.4700000000 
H 9.7900000000 8.9400000000 4.6200000000 
O 7.8500000000 5.4000000000 8.5800000000 
H 7.3600000000 5.3700000000 9.4400000000 
H 8.1400000000 4.4400000000 8.5000000000 
O 6.3900000000 4.2000000000 0.7600000000 
H 7.1000000000 4.0700000000 1.4800000000 
H 5.6200000000 4.6900000000 1.2000000000 
O 0.8300000000 5.3200000000 2.6700000000 
H 1.5300000000 4.6200000000 2.6100000000 
H 1.2700000000 6.1100000000 2.2600000000 
O 8.3800000000 2.5900000000 8.3700000000 
H 7.6600000000 2.1500000000 8.8100000000 
H 9.1800000000 2.3700000000 8.9700000000 
O 7.7600000000 0.3600000000 0.7800000000 
H 7.0200000000 0.9600000000 0.5700000000 
H 7.7300000000 9.5100000000 0.1700000000 
O 4.3500000000 5.6300000000 1.7000000000 
H 4.6900000000 6.5300000000 1.7500000000 
H 3.6600000000 5.8800000000 1.0600000000 
O 0.3800000000 6.6500000000 8.7900000000 
H 9.2900000000 6.5900000000 9.0200000000 
H 0.7500000000 5.7900000000 8.5100000000 
O 5.2300000000 9.4600000000 6.5400000000 
H 4.9400000000 0.5500000000 6.5400000000 
H 4.6300000000 9.0400000000 5.8500000000 
O 6.2400000000 7.7200000000 8.2400000000 
H 6.8700000000 7.1200000000 7.7600000000 
H 5.8800000000 8.2800000000 7.4600000000 

