&CONTROL
/
&SYSTEM
   ntyp             = 2
   nat              = 96
   ibrav            = 0
/
&ELECTRONS
/
&IONS
/
&CELL
/

ATOMIC_SPECIES
O 15.999 None
H 1.008 None

K_POINTS gamma

CELL_PARAMETERS angstrom
9.86520000000000 0.00000000000000 0.00000000000000
0.00000000000000 9.86520000000000 0.00000000000000
0.00000000000000 0.00000000000000 9.86520000000000

ATOMIC_POSITIONS angstrom
O 1.6600000000 1.5000000000 5.6500000000 
H 1.3000000000 0.7000000000 6.0200000000 
H 1.2700000000 2.2500000000 6.1500000000 
O 3.6200000000 8.1000000000 3.4900000000 
H 3.6300000000 7.8300000000 4.4200000000 
H 2.6600000000 8.3400000000 3.4800000000 
O 6.4100000000 9.2700000000 4.5400000000 
H 6.7500000000 9.4900000000 5.4200000000 
H 5.6700000000 9.8600000000 4.4600000000 
O 6.9700000000 9.4300000000 7.5400000000 
H 7.6100000000 0.0800000000 8.1900000000 
H 6.1400000000 0.1000000000 7.7400000000 
O 2.5500000000 4.3000000000 4.9000000000 
H 1.6400000000 4.5700000000 4.9000000000 
H 2.8800000000 4.7700000000 4.0900000000 
O 6.4200000000 4.7000000000 9.1500000000 
H 6.1800000000 4.0900000000 8.4600000000 
H 5.9600000000 5.5100000000 9.0000000000 
O 4.5100000000 1.4600000000 4.7200000000 
H 3.7200000000 1.9900000000 4.5600000000 
H 4.4800000000 1.3400000000 5.6800000000 
O 7.0900000000 0.4900000000 1.6900000000 
H 7.0100000000 9.8000000000 2.4500000000 
H 7.4900000000 1.3900000000 2.0600000000 
O 3.4100000000 3.4800000000 9.1000000000 
H 3.3800000000 4.2500000000 9.7000000000 
H 3.6800000000 3.9400000000 8.2400000000 
O 0.5300000000 8.6600000000 3.8400000000 
H 0.4800000000 8.4400000000 4.7500000000 
H 9.8300000000 8.0400000000 3.3100000000 
O 8.3800000000 7.4100000000 1.8300000000 
H 7.4400000000 7.5000000000 1.4600000000 
H 8.7600000000 6.5900000000 1.4200000000 
O 0.7100000000 5.1100000000 8.4500000000 
H 1.3600000000 5.6700000000 8.8600000000 
H 0.1300000000 4.8300000000 9.1800000000 
O 8.1300000000 2.6500000000 2.9900000000 
H 8.1300000000 2.5200000000 3.9300000000 
H 9.0800000000 2.5000000000 2.8000000000 
O 0.9700000000 8.0900000000 7.1500000000 
H 1.0500000000 8.5000000000 8.0000000000 
H 1.8300000000 7.5500000000 7.0000000000 
O 4.2500000000 0.8400000000 7.5700000000 
H 3.8100000000 1.7300000000 7.8300000000 
H 3.6200000000 0.2100000000 7.9700000000 
O 3.3600000000 1.7800000000 1.4000000000 
H 4.2000000000 1.8300000000 1.7900000000 
H 3.3700000000 2.3900000000 0.6300000000 
O 5.7500000000 3.2300000000 1.6800000000 
H 5.8300000000 3.5100000000 0.7200000000 
H 6.6700000000 3.2400000000 2.0400000000 
O 9.6000000000 2.0800000000 7.9800000000 
H 9.8400000000 1.6400000000 8.8100000000 
H 0.0900000000 3.0400000000 8.1400000000 
O 3.4900000000 6.7100000000 6.3400000000 
H 3.6200000000 5.8000000000 6.0000000000 
H 4.1600000000 6.8500000000 7.0800000000 
O 8.4100000000 7.4400000000 5.4800000000 
H 7.7500000000 8.1100000000 5.0400000000 
H 8.7200000000 7.8700000000 6.3300000000 
O 8.6600000000 4.8500000000 0.7100000000 
H 8.3800000000 4.8200000000 1.6500000000 
H 7.8700000000 4.9600000000 0.1900000000 
O 1.0900000000 1.8200000000 3.0200000000 
H 1.1700000000 1.7300000000 4.0100000000 
H 2.0600000000 1.7500000000 2.7300000000 
O 9.7100000000 5.0400000000 5.7500000000 
H 0.0400000000 5.2000000000 6.7200000000 
H 9.3100000000 5.9000000000 5.6200000000 
O 5.3900000000 7.2400000000 8.5000000000 
H 6.1900000000 7.6700000000 8.1700000000 
H 5.2600000000 7.6000000000 9.4300000000 
O 3.6700000000 5.3300000000 2.4300000000 
H 4.1000000000 6.2000000000 2.4900000000 
H 4.3800000000 4.6400000000 2.5400000000 
O 6.1300000000 5.3700000000 4.6000000000 
H 6.8400000000 4.7000000000 4.5300000000 
H 6.5800000000 6.1300000000 5.0100000000 
O 2.4100000000 6.5600000000 0.2600000000 
H 2.2000000000 7.4900000000 0.2200000000 
H 2.8300000000 6.5400000000 1.2200000000 
O 4.5800000000 4.0400000000 6.4200000000 
H 5.2700000000 4.3300000000 5.7600000000 
H 3.7300000000 3.9000000000 5.9100000000 
O 9.8400000000 0.5900000000 0.6700000000 
H 0.3700000000 0.8200000000 1.5400000000 
H 8.9900000000 0.1700000000 0.9000000000 
O 2.1600000000 9.5000000000 9.5300000000 
H 2.6900000000 0.1300000000 0.3300000000 
H 1.3100000000 0.1500000000 9.7700000000 
O 7.9900000000 2.7000000000 5.6700000000 
H 8.6800000000 3.3800000000 5.8900000000 
H 8.3000000000 1.9900000000 6.2100000000 
O 5.3000000000 8.5600000000 1.0300000000 
H 5.7900000000 9.3400000000 0.9600000000 
H 4.8500000000 8.7300000000 1.8800000000 

