&CONTROL
/
&SYSTEM
   ntyp             = 2
   nat              = 96
   ibrav            = 0
/
&ELECTRONS
/
&IONS
/
&CELL
/

ATOMIC_SPECIES
O 15.999 None
H 1.008 None

K_POINTS gamma

CELL_PARAMETERS angstrom
9.86520000000000 0.00000000000000 0.00000000000000
0.00000000000000 9.86520000000000 0.00000000000000
0.00000000000000 0.00000000000000 9.86520000000000

ATOMIC_POSITIONS angstrom
O 5.6900000000 2.3000000000 3.4000000000 
H 5.9200000000 2.9900000000 2.7900000000 
H 6.0100000000 2.7700000000 4.1700000000 
O 7.7700000000 8.6400000000 9.1000000000 
H 8.0500000000 9.3300000000 8.4600000000 
H 7.7500000000 9.2000000000 0.0300000000 
O 1.6700000000 5.2100000000 6.3500000000 
H 0.8200000000 5.3200000000 6.8500000000 
H 1.3900000000 5.6100000000 5.5100000000 
O 1.4300000000 1.4400000000 6.5100000000 
H 1.2600000000 2.3300000000 6.1900000000 
H 1.6700000000 1.4400000000 7.4400000000 
O 8.3100000000 1.3500000000 0.7500000000 
H 8.1300000000 1.2800000000 1.7100000000 
H 8.5700000000 2.3100000000 0.6400000000 
O 3.2100000000 5.1400000000 8.9400000000 
H 4.0700000000 5.6200000000 9.1100000000 
H 3.1000000000 5.1500000000 8.0300000000 
O 8.6100000000 5.3500000000 2.7900000000 
H 9.3900000000 4.8000000000 3.1600000000 
H 9.0200000000 5.4900000000 1.8900000000 
O 9.1200000000 6.4400000000 0.1600000000 
H 8.5700000000 7.1600000000 9.6700000000 
H 9.7900000000 6.9000000000 0.7100000000 
O 4.3300000000 8.5900000000 1.4400000000 
H 3.6900000000 9.1300000000 2.0600000000 
H 5.2700000000 8.8300000000 1.7600000000 
O 0.7400000000 3.1000000000 3.2500000000 
H 0.7600000000 2.7000000000 2.3900000000 
H 1.6300000000 3.3600000000 3.4600000000 
O 4.0800000000 8.2700000000 6.4900000000 
H 3.4800000000 8.0800000000 5.7900000000 
H 4.2700000000 7.3500000000 6.7700000000 
O 5.3900000000 6.7200000000 9.7800000000 
H 4.8900000000 7.2700000000 0.6200000000 
H 5.8400000000 7.3700000000 9.1400000000 
O 8.4100000000 0.7200000000 7.1400000000 
H 7.6900000000 1.3100000000 7.4500000000 
H 9.2100000000 1.2300000000 6.8900000000 
O 6.3900000000 2.3700000000 8.1900000000 
H 5.7100000000 1.6600000000 8.1800000000 
H 6.7700000000 2.4000000000 9.0800000000 
O 3.4500000000 0.4900000000 3.5900000000 
H 3.4900000000 0.1900000000 4.5100000000 
H 4.2000000000 1.1400000000 3.4400000000 
O 0.5200000000 9.4300000000 4.3000000000 
H 1.1000000000 0.3000000000 4.7200000000 
H 9.5200000000 0.0500000000 4.3000000000 
O 8.3600000000 1.5600000000 3.7000000000 
H 9.1700000000 2.0100000000 3.2500000000 
H 7.8700000000 2.2000000000 4.2000000000 
O 3.4200000000 4.2300000000 3.2200000000 
H 3.0600000000 4.9100000000 2.7600000000 
H 4.0600000000 3.9400000000 2.5800000000 
O 1.6600000000 1.3800000000 1.4200000000 
H 2.2900000000 1.1000000000 2.0900000000 
H 2.0900000000 1.6000000000 0.5300000000 
O 2.8500000000 2.4500000000 9.0400000000 
H 3.0800000000 3.4400000000 8.9900000000 
H 3.5900000000 1.9600000000 8.6500000000 
O 4.6700000000 0.3100000000 8.4100000000 
H 4.4100000000 9.4900000000 7.7100000000 
H 4.6500000000 9.6100000000 9.2500000000 
O 7.6400000000 6.0300000000 5.2900000000 
H 7.6000000000 7.0300000000 5.1900000000 
H 8.2600000000 5.7900000000 4.5500000000 
O 7.0700000000 3.4200000000 5.3900000000 
H 7.2600000000 4.2700000000 5.8100000000 
H 6.6300000000 3.0700000000 6.1800000000 
O 0.7400000000 8.5100000000 1.5100000000 
H 0.4500000000 8.8200000000 2.3700000000 
H 0.8700000000 9.3900000000 1.0800000000 
O 9.4500000000 3.7300000000 0.2400000000 
H 9.3300000000 4.6700000000 0.0900000000 
H 0.3800000000 3.5700000000 9.6100000000 
O 2.2400000000 7.2900000000 4.2500000000 
H 1.4900000000 7.9000000000 3.9600000000 
H 2.4800000000 7.0000000000 3.3500000000 
O 4.3800000000 5.5500000000 6.4000000000 
H 3.5000000000 5.6500000000 5.8700000000 
H 5.0900000000 5.2900000000 5.7500000000 
O 7.2300000000 8.6700000000 5.4800000000 
H 7.5900000000 9.4500000000 5.9800000000 
H 6.2600000000 8.7200000000 5.7300000000 
O 5.9500000000 4.4100000000 1.6300000000 
H 6.1000000000 4.8100000000 0.7300000000 
H 6.4100000000 4.9700000000 2.2800000000 
O 9.1300000000 5.5900000000 7.4500000000 
H 9.1200000000 6.0300000000 8.3500000000 
H 8.3000000000 5.9600000000 6.9900000000 
O 2.4400000000 6.2000000000 1.4900000000 
H 2.5000000000 7.1900000000 1.2400000000 
H 2.5600000000 5.7500000000 0.6100000000 
O 6.4500000000 9.3000000000 2.9300000000 
H 6.9600000000 9.1300000000 3.8000000000 
H 6.1400000000 0.4200000000 2.9200000000 

