&CONTROL
/
&SYSTEM
   ntyp             = 2
   nat              = 96
   ibrav            = 0
/
&ELECTRONS
/
&IONS
/
&CELL
/

ATOMIC_SPECIES
O 15.999 None
H 1.008 None

K_POINTS gamma

CELL_PARAMETERS angstrom
9.86520000000000 0.00000000000000 0.00000000000000
0.00000000000000 9.86520000000000 0.00000000000000
0.00000000000000 0.00000000000000 9.86520000000000

ATOMIC_POSITIONS angstrom
O 0.6900000000 1.0300000000 4.8300000000 
H 0.5100000000 1.8100000000 4.3100000000 
H 1.6100000000 1.2600000000 5.0400000000 
O 1.6900000000 4.1700000000 7.9000000000 
H 2.6300000000 3.8800000000 7.8900000000 
H 1.7500000000 5.1200000000 7.6500000000 
O 4.4400000000 6.3400000000 9.2500000000 
H 3.5400000000 6.1700000000 8.8100000000 
H 4.1700000000 6.4200000000 0.3300000000 
O 3.4900000000 5.3500000000 1.6000000000 
H 2.7200000000 4.9100000000 1.1700000000 
H 3.2100000000 5.5700000000 2.5800000000 
O 5.7200000000 1.9700000000 9.4400000000 
H 6.3500000000 2.5200000000 8.8300000000 
H 6.4800000000 1.7500000000 0.2200000000 
O 4.4500000000 0.7200000000 7.4000000000 
H 4.5400000000 1.5800000000 6.9600000000 
H 4.8200000000 1.0300000000 8.2500000000 
O 7.1700000000 7.7900000000 2.6800000000 
H 6.6300000000 7.0100000000 2.3500000000 
H 6.8700000000 7.9400000000 3.5900000000 
O 9.5800000000 8.6500000000 6.3600000000 
H 9.7500000000 9.3900000000 5.7800000000 
H 9.3700000000 9.0700000000 7.2700000000 
O 8.9900000000 2.4800000000 9.7500000000 
H 8.9400000000 1.7100000000 0.4500000000 
H 9.2200000000 1.9900000000 8.9100000000 
O 2.5300000000 9.4900000000 1.1400000000 
H 2.6100000000 9.3300000000 0.2000000000 
H 3.0500000000 0.4300000000 1.2200000000 
O 1.3100000000 8.5100000000 3.3100000000 
H 0.6900000000 9.1800000000 3.6100000000 
H 1.8400000000 8.9800000000 2.6700000000 
O 5.6500000000 6.2900000000 6.3800000000 
H 6.5400000000 6.5500000000 6.6800000000 
H 5.1200000000 6.9300000000 6.9000000000 
O 7.0200000000 1.4500000000 4.0200000000 
H 7.6200000000 1.6300000000 4.8300000000 
H 6.8000000000 2.3800000000 3.6300000000 
O 3.4600000000 1.5500000000 4.4200000000 
H 3.9600000000 0.9000000000 4.8700000000 
H 3.8800000000 1.7600000000 3.5300000000 
O 7.5600000000 0.3000000000 1.4900000000 
H 7.5600000000 0.7800000000 2.3500000000 
H 7.4800000000 9.2200000000 1.8600000000 
O 0.2400000000 3.5500000000 3.4300000000 
H 1.1600000000 3.9100000000 3.6600000000 
H 9.6000000000 4.4700000000 3.3700000000 
O 6.3100000000 5.4800000000 1.6500000000 
H 5.5400000000 5.4500000000 0.9900000000 
H 7.0900000000 5.1700000000 1.1400000000 
O 2.3500000000 9.1100000000 8.3200000000 
H 3.1400000000 9.6500000000 7.9200000000 
H 1.5500000000 9.6400000000 8.0000000000 
O 0.7200000000 1.4600000000 7.5200000000 
H 1.1300000000 2.3400000000 7.7200000000 
H 0.3300000000 1.6600000000 6.7500000000 
O 8.1800000000 9.5500000000 8.6900000000 
H 7.8600000000 9.7800000000 9.5700000000 
H 7.7200000000 8.6500000000 8.6400000000 
O 8.7100000000 5.3800000000 0.4300000000 
H 9.1100000000 4.5500000000 0.0500000000 
H 9.3900000000 6.0600000000 0.3600000000 
O 1.4200000000 3.7500000000 0.8400000000 
H 0.6200000000 3.3300000000 1.1800000000 
H 1.4700000000 3.6200000000 9.7000000000 
O 3.1100000000 6.1700000000 4.2400000000 
H 2.7200000000 7.0400000000 3.9500000000 
H 3.3900000000 6.2700000000 5.1700000000 
O 8.3800000000 3.3300000000 6.1200000000 
H 8.5900000000 3.3600000000 5.1600000000 
H 8.7500000000 4.2000000000 6.4000000000 
O 5.9100000000 4.3800000000 4.2800000000 
H 5.8000000000 5.1800000000 4.8300000000 
H 6.0100000000 4.8000000000 3.3800000000 
O 0.4500000000 7.6900000000 0.5600000000 
H 9.8600000000 8.2600000000 9.8200000000 
H 1.1800000000 8.2200000000 0.9800000000 
O 4.8100000000 3.6000000000 6.6400000000 
H 5.1900000000 4.4900000000 6.7800000000 
H 5.1000000000 3.3700000000 5.7200000000 
O 9.5000000000 6.2400000000 3.4000000000 
H 8.9500000000 6.7000000000 2.7600000000 
H 0.4700000000 6.7900000000 3.3600000000 
O 2.0000000000 6.8500000000 7.0500000000 
H 1.2000000000 7.2700000000 6.6900000000 
H 2.2500000000 7.5800000000 7.6400000000 
O 3.7300000000 2.1800000000 1.5400000000 
H 4.3700000000 2.4200000000 0.8200000000 
H 2.9600000000 2.8300000000 1.5000000000 
O 8.5500000000 6.2200000000 6.0100000000 
H 8.7600000000 5.9800000000 5.0300000000 
H 9.1100000000 7.0800000000 6.0600000000 
O 7.0700000000 7.2000000000 9.0200000000 
H 7.6300000000 6.5700000000 9.6100000000 
H 6.1900000000 6.7600000000 9.0100000000 

