&CONTROL
/
&SYSTEM
   ntyp             = 2
   nat              = 96
   ibrav            = 0
/
&ELECTRONS
/
&IONS
/
&CELL
/

ATOMIC_SPECIES
O 15.999 None
H 1.008 None

K_POINTS gamma

CELL_PARAMETERS angstrom
9.86520000000000 0.00000000000000 0.00000000000000
0.00000000000000 9.86520000000000 0.00000000000000
0.00000000000000 0.00000000000000 9.86520000000000

ATOMIC_POSITIONS angstrom
O 2.8000000000 8.3200000000 3.3900000000 
H 3.6400000000 7.9000000000 3.5700000000 
H 2.7100000000 8.9500000000 4.0900000000 
O 7.4400000000 3.5300000000 8.0900000000 
H 7.8400000000 3.8000000000 8.9600000000 
H 6.6500000000 3.0100000000 8.4200000000 
O 7.7700000000 5.6100000000 3.4700000000 
H 7.4900000000 5.1100000000 2.6800000000 
H 8.2700000000 5.0000000000 4.0500000000 
O 5.2200000000 7.0900000000 3.5600000000 
H 6.1700000000 7.2900000000 3.4400000000 
H 5.1500000000 7.4700000000 4.4700000000 
O 2.6700000000 2.5200000000 1.3900000000 
H 3.2800000000 2.9800000000 0.7500000000 
H 3.0700000000 1.6000000000 1.3600000000 
O 3.7500000000 2.7900000000 6.5300000000 
H 3.8400000000 2.8800000000 5.5200000000 
H 3.8500000000 1.8000000000 6.6300000000 
O 2.1500000000 3.8600000000 8.6600000000 
H 2.5600000000 3.5200000000 7.8300000000 
H 1.3700000000 3.2700000000 8.7900000000 
O 5.6700000000 0.4000000000 5.3700000000 
H 6.2600000000 9.6300000000 4.9300000000 
H 5.3500000000 9.7200000000 6.1400000000 
O 4.5400000000 7.6700000000 6.2200000000 
H 3.5700000000 7.2800000000 6.1200000000 
H 4.7300000000 7.3500000000 7.0800000000 
O 4.1000000000 0.1500000000 1.5700000000 
H 3.6100000000 9.4300000000 2.0900000000 
H 4.6300000000 9.4700000000 0.9100000000 
O 1.6900000000 1.2100000000 3.9400000000 
H 2.3200000000 1.7500000000 3.4200000000 
H 0.9700000000 1.0600000000 3.2800000000 
O 5.1700000000 2.5700000000 9.4400000000 
H 5.6000000000 1.9000000000 0.2000000000 
H 4.7300000000 1.9200000000 8.8600000000 
O 7.4800000000 1.4200000000 0.9500000000 
H 7.3200000000 1.6500000000 1.9300000000 
H 7.9700000000 0.5500000000 1.0100000000 
O 1.5900000000 9.3600000000 7.4900000000 
H 0.9200000000 0.0900000000 7.8300000000 
H 1.3500000000 8.5400000000 8.0100000000 
O 7.6900000000 7.2100000000 0.3300000000 
H 7.9700000000 6.4000000000 0.7400000000 
H 8.3100000000 7.7900000000 0.7500000000 
O 4.6000000000 4.2600000000 4.0300000000 
H 5.4900000000 3.8500000000 3.9200000000 
H 4.7800000000 5.1300000000 3.7000000000 
O 8.2100000000 4.5500000000 0.9600000000 
H 7.8000000000 3.5800000000 1.0200000000 
H 9.1800000000 4.3100000000 1.1600000000 
O 2.1300000000 6.5300000000 6.2200000000 
H 1.7200000000 6.2700000000 7.0500000000 
H 1.6000000000 7.2600000000 5.8700000000 
O 8.5400000000 9.3300000000 2.3500000000 
H 9.2200000000 8.6500000000 2.2600000000 
H 8.3700000000 9.0700000000 3.2700000000 
O 4.1800000000 0.2200000000 7.9200000000 
H 4.4700000000 9.3600000000 8.5800000000 
H 3.2900000000 9.7500000000 7.6100000000 
O 9.2000000000 0.8100000000 8.5800000000 
H 9.1900000000 1.5300000000 7.9500000000 
H 8.7100000000 1.3100000000 9.2700000000 
O 0.5000000000 6.4800000000 8.3400000000 
H 0.5700000000 6.0500000000 9.2500000000 
H 9.5400000000 6.2200000000 7.9800000000 
O 4.4600000000 5.1900000000 9.4200000000 
H 5.0500000000 4.4300000000 9.5800000000 
H 3.5800000000 4.7400000000 9.2000000000 
O 0.4200000000 2.2700000000 6.0900000000 
H 0.8000000000 1.4700000000 5.6800000000 
H 1.0700000000 2.8300000000 5.6000000000 
O 7.1500000000 2.5200000000 3.4800000000 
H 7.5700000000 2.9000000000 4.3000000000 
H 6.7000000000 1.8000000000 3.9300000000 
O 7.4800000000 8.1100000000 4.9100000000 
H 7.8400000000 8.1900000000 5.8500000000 
H 7.7200000000 7.1300000000 4.7200000000 
O 0.9100000000 4.4300000000 1.9100000000 
H 0.9500000000 4.2200000000 2.8800000000 
H 1.6000000000 3.7300000000 1.6300000000 
O 0.4000000000 7.2500000000 1.9700000000 
H 1.3600000000 7.4200000000 2.1700000000 
H 0.2700000000 6.2800000000 1.9500000000 
O 8.0600000000 8.1300000000 7.6400000000 
H 7.8500000000 7.5900000000 8.4600000000 
H 8.2700000000 8.9800000000 8.1300000000 
O 8.3300000000 3.8800000000 5.6300000000 
H 9.1100000000 3.3000000000 5.8200000000 
H 7.8500000000 4.0400000000 6.4800000000 
O 1.8900000000 4.2500000000 4.4400000000 
H 2.8400000000 4.1400000000 4.1100000000 
H 1.9300000000 4.9500000000 5.1400000000 
O 4.8100000000 8.0000000000 9.5300000000 
H 4.3600000000 7.1700000000 0.0400000000 
H 5.7100000000 7.6100000000 9.6400000000 

