&CONTROL
/
&SYSTEM
   ntyp             = 2
   nat              = 96
   ibrav            = 0
/
&ELECTRONS
/
&IONS
/
&CELL
/

ATOMIC_SPECIES
O 15.999 None
H 1.008 None

K_POINTS gamma

CELL_PARAMETERS angstrom
9.86520000000000 0.00000000000000 0.00000000000000
0.00000000000000 9.86520000000000 0.00000000000000
0.00000000000000 0.00000000000000 9.86520000000000

ATOMIC_POSITIONS angstrom
O 9.2500000000 7.4100000000 5.6000000000 
H 9.2500000000 6.5800000000 6.1200000000 
H 9.1000000000 8.0400000000 6.3400000000 
O 2.0900000000 9.0200000000 6.5000000000 
H 1.4500000000 9.6700000000 6.1700000000 
H 1.6400000000 8.4700000000 7.1500000000 
O 9.3900000000 8.7000000000 8.1400000000 
H 9.5000000000 9.0000000000 9.0700000000 
H 8.6700000000 9.2700000000 7.8000000000 
O 5.4700000000 7.3000000000 4.1600000000 
H 4.6600000000 7.0500000000 3.6600000000 
H 5.2600000000 6.9700000000 5.0700000000 
O 3.2800000000 4.2400000000 0.3700000000 
H 4.1600000000 4.1100000000 0.8200000000 
H 2.8400000000 3.4100000000 0.2300000000 
O 1.1000000000 1.8400000000 2.5600000000 
H 1.8000000000 1.7700000000 1.8400000000 
H 0.3100000000 2.1100000000 2.0400000000 
O 2.2500000000 1.6100000000 9.8400000000 
H 1.9200000000 1.8300000000 8.9000000000 
H 2.5100000000 0.6500000000 9.8200000000 
O 7.9900000000 2.4300000000 5.1800000000 
H 7.6500000000 2.4700000000 4.3000000000 
H 7.1600000000 2.1900000000 5.5900000000 
O 3.3700000000 5.6000000000 3.2800000000 
H 2.6000000000 6.0200000000 2.8300000000 
H 3.8800000000 5.1200000000 2.6100000000 
O 4.3300000000 4.4000000000 7.5300000000 
H 4.5000000000 3.4200000000 7.4200000000 
H 3.6900000000 4.4600000000 8.2600000000 
O 7.3400000000 6.5200000000 2.1500000000 
H 6.7900000000 6.7700000000 2.9700000000 
H 7.3300000000 7.4000000000 1.6100000000 
O 5.4900000000 4.3400000000 1.7600000000 
H 6.0000000000 3.5200000000 1.6700000000 
H 6.1300000000 5.0600000000 2.0900000000 
O 0.3800000000 5.9500000000 3.3500000000 
H 9.7900000000 6.5200000000 4.0800000000 
H 9.5200000000 5.9500000000 2.7200000000 
O 9.1500000000 4.6900000000 6.5700000000 
H 8.6600000000 4.1000000000 5.9700000000 
H 0.2100000000 4.5400000000 6.2100000000 
O 7.6400000000 3.4500000000 8.6400000000 
H 8.3500000000 3.7600000000 8.0500000000 
H 7.1500000000 4.3200000000 8.7600000000 
O 4.6400000000 9.1700000000 7.5100000000 
H 5.1100000000 8.2600000000 7.2700000000 
H 3.7000000000 9.1100000000 7.1100000000 
O 5.7400000000 6.6800000000 6.8600000000 
H 6.5400000000 6.2900000000 7.2000000000 
H 5.1400000000 5.9100000000 7.1000000000 
O 5.5800000000 1.8500000000 6.3100000000 
H 5.1300000000 0.9700000000 6.3900000000 
H 4.9900000000 2.2500000000 5.6100000000 
O 1.7000000000 4.6000000000 5.1500000000 
H 1.1400000000 5.1000000000 4.5200000000 
H 2.5700000000 5.0400000000 5.0000000000 
O 3.5800000000 0.4700000000 2.6800000000 
H 3.7900000000 0.3200000000 1.7600000000 
H 3.1300000000 9.5800000000 2.9300000000 
O 0.4200000000 0.7500000000 4.8200000000 
H 0.5500000000 1.1100000000 3.9100000000 
H 9.4100000000 1.1700000000 5.0800000000 
O 1.5200000000 8.5400000000 3.4300000000 
H 1.1900000000 9.3200000000 4.0000000000 
H 1.5500000000 7.7800000000 4.0400000000 
O 7.6900000000 6.2000000000 8.7100000000 
H 7.5000000000 6.8100000000 9.4500000000 
H 8.7100000000 6.2900000000 8.6400000000 
O 7.5600000000 9.4300000000 3.9200000000 
H 8.5000000000 9.2400000000 4.1600000000 
H 6.9700000000 8.6100000000 4.1000000000 
O 6.4300000000 1.0800000000 1.9500000000 
H 6.8400000000 0.3600000000 2.5200000000 
H 5.4700000000 0.9500000000 2.0800000000 
O 9.8400000000 9.2200000000 1.3700000000 
H 0.6400000000 8.8600000000 1.9700000000 
H 0.0200000000 0.3000000000 1.4900000000 
O 7.0800000000 0.4900000000 8.2700000000 
H 6.2600000000 0.1900000000 7.8900000000 
H 7.0200000000 1.4700000000 8.2000000000 
O 8.6400000000 2.4400000000 1.3300000000 
H 7.7200000000 2.0600000000 1.5100000000 
H 8.5100000000 3.0400000000 0.5200000000 
O 7.3100000000 8.5800000000 0.4300000000 
H 7.4400000000 9.2600000000 9.5200000000 
H 7.9700000000 9.0400000000 0.9600000000 
O 3.5700000000 2.4000000000 4.7800000000 
H 2.8500000000 3.0500000000 4.5300000000 
H 3.5300000000 1.6600000000 4.1200000000 
O 2.0700000000 2.4700000000 7.2700000000 
H 2.2500000000 1.8700000000 6.4700000000 
H 2.3800000000 3.4300000000 7.0600000000 
O 4.5400000000 9.1100000000 0.3700000000 
H 4.4700000000 9.3200000000 9.2800000000 
H 5.3700000000 8.6300000000 0.4100000000 

