&CONTROL
/
&SYSTEM
   ntyp             = 2
   nat              = 96
   ibrav            = 0
/
&ELECTRONS
/
&IONS
/
&CELL
/

ATOMIC_SPECIES
O 15.999 None
H 1.008 None

K_POINTS gamma

CELL_PARAMETERS angstrom
9.86520000000000 0.00000000000000 0.00000000000000
0.00000000000000 9.86520000000000 0.00000000000000
0.00000000000000 0.00000000000000 9.86520000000000

ATOMIC_POSITIONS angstrom
O 2.0000000000 7.0900000000 0.7900000000 
H 1.4100000000 6.4000000000 0.3600000000 
H 2.9800000000 6.9200000000 0.7000000000 
O 7.6600000000 4.6700000000 8.3100000000 
H 7.8400000000 3.7700000000 8.0500000000 
H 7.8600000000 5.0500000000 7.4700000000 
O 0.0500000000 9.1400000000 7.2200000000 
H 0.0100000000 8.5700000000 8.0700000000 
H 9.2500000000 8.7400000000 6.6600000000 
O 3.0300000000 8.5100000000 8.5900000000 
H 2.2800000000 9.0900000000 8.2700000000 
H 2.5200000000 7.9300000000 9.1800000000 
O 6.5200000000 2.0900000000 2.6000000000 
H 5.8700000000 1.4200000000 2.9500000000 
H 6.9600000000 2.2700000000 3.4400000000 
O 8.1700000000 7.4300000000 8.9100000000 
H 7.7800000000 6.6800000000 8.4100000000 
H 7.5900000000 8.2200000000 8.9600000000 
O 4.5700000000 4.8000000000 6.0500000000 
H 4.7600000000 3.8500000000 6.3000000000 
H 3.8200000000 5.0100000000 6.6600000000 
O 1.8600000000 1.9800000000 7.5000000000 
H 1.2500000000 2.0600000000 8.2400000000 
H 1.4100000000 1.2600000000 7.0700000000 
O 8.3100000000 1.9300000000 7.2300000000 
H 8.7900000000 1.3100000000 6.6800000000 
H 8.4000000000 1.6700000000 8.1900000000 
O 2.4000000000 4.9100000000 7.6200000000 
H 2.6900000000 3.9700000000 7.6500000000 
H 1.5700000000 4.8300000000 8.1200000000 
O 0.6800000000 1.1200000000 0.0800000000 
H 1.0300000000 1.6600000000 0.8500000000 
H 9.6200000000 1.0000000000 0.4400000000 
O 2.2200000000 8.9000000000 4.5500000000 
H 1.9100000000 8.8100000000 3.6100000000 
H 1.5500000000 9.5200000000 4.9100000000 
O 5.2700000000 7.1000000000 7.4700000000 
H 5.3200000000 6.5100000000 6.6400000000 
H 4.3100000000 7.3200000000 7.4800000000 
O 0.6200000000 8.8500000000 2.1700000000 
H 1.4500000000 8.5300000000 1.6700000000 
H 9.6900000000 8.5000000000 1.6200000000 
O 5.5100000000 5.7700000000 0.2600000000 
H 6.3200000000 5.2900000000 0.0400000000 
H 5.3600000000 6.2000000000 9.2400000000 
O 8.1500000000 0.4000000000 0.8700000000 
H 7.5900000000 0.7000000000 1.5600000000 
H 7.4700000000 9.6900000000 0.4400000000 
O 2.3200000000 1.7400000000 2.4300000000 
H 2.9700000000 1.2000000000 3.0000000000 
H 2.9300000000 2.5600000000 2.2400000000 
O 4.4900000000 2.1800000000 7.0300000000 
H 4.7200000000 1.9100000000 7.9400000000 
H 3.5300000000 2.0400000000 7.1500000000 
O 4.2000000000 1.3600000000 9.5600000000 
H 3.8000000000 2.1600000000 0.1200000000 
H 3.6700000000 0.6300000000 9.8600000000 
O 0.3400000000 1.0000000000 4.1900000000 
H 0.9800000000 1.5100000000 3.6000000000 
H 9.8400000000 0.4000000000 3.4900000000 
O 7.6200000000 8.6100000000 4.6800000000 
H 7.5000000000 8.2100000000 3.8200000000 
H 6.9100000000 9.3300000000 4.6700000000 
O 4.2100000000 3.5300000000 1.5300000000 
H 4.4000000000 4.4500000000 1.2400000000 
H 5.0300000000 3.2200000000 2.0400000000 
O 0.4400000000 5.3100000000 9.4800000000 
H 9.7500000000 4.9100000000 0.2900000000 
H 9.7100000000 6.0200000000 9.1000000000 
O 4.5300000000 0.2200000000 3.1700000000 
H 5.2000000000 9.4800000000 2.8000000000 
H 4.0900000000 9.4900000000 3.8400000000 
O 6.4500000000 1.3400000000 5.3500000000 
H 5.4900000000 1.5100000000 5.3800000000 
H 6.7600000000 1.5800000000 6.2600000000 
O 8.4900000000 3.5700000000 4.4000000000 
H 8.8500000000 2.6400000000 4.3600000000 
H 9.1900000000 4.1100000000 4.8400000000 
O 0.8200000000 6.3400000000 5.6400000000 
H 1.4600000000 5.9400000000 6.3100000000 
H 1.3500000000 7.0500000000 5.1100000000 
O 8.4800000000 4.1000000000 1.5200000000 
H 7.6200000000 3.6400000000 1.5500000000 
H 8.6200000000 4.3400000000 2.4800000000 
O 8.0800000000 6.3100000000 6.2900000000 
H 9.0500000000 6.2600000000 5.9700000000 
H 7.7100000000 7.0100000000 5.7000000000 
O 6.0200000000 5.2500000000 3.5900000000 
H 5.2300000000 5.0900000000 4.2200000000 
H 6.8000000000 4.7400000000 4.0400000000 
O 6.2500000000 7.5900000000 2.2300000000 
H 6.0000000000 7.1000000000 1.4700000000 
H 6.0900000000 6.8500000000 2.8600000000 
O 6.1800000000 9.3200000000 9.1700000000 
H 5.4500000000 0.1900000000 9.1800000000 
H 5.5700000000 8.5700000000 8.8500000000 

