&CONTROL
/
&SYSTEM
   ntyp             = 2
   nat              = 96
   ibrav            = 0
/
&ELECTRONS
/
&IONS
/
&CELL
/

ATOMIC_SPECIES
O 15.999 None
H 1.008 None

K_POINTS gamma

CELL_PARAMETERS angstrom
9.86520000000000 0.00000000000000 0.00000000000000
0.00000000000000 9.86520000000000 0.00000000000000
0.00000000000000 0.00000000000000 9.86520000000000

ATOMIC_POSITIONS angstrom
O 0.1500000000 5.2800000000 8.7500000000 
H 9.2600000000 4.9000000000 9.3300000000 
H 9.7900000000 6.2100000000 8.6300000000 
O 9.3700000000 0.6400000000 3.2600000000 
H 0.2300000000 0.3400000000 3.8700000000 
H 9.3900000000 1.6200000000 3.3500000000 
O 4.0200000000 9.5500000000 7.2800000000 
H 4.0600000000 0.3600000000 8.0600000000 
H 4.4100000000 8.6800000000 7.5400000000 
O 2.4700000000 9.8200000000 5.1100000000 
H 3.0600000000 9.6400000000 5.9000000000 
H 1.7300000000 9.1100000000 5.2500000000 
O 4.0900000000 1.3500000000 3.2400000000 
H 4.3500000000 0.6100000000 2.6800000000 
H 3.5100000000 0.8700000000 3.8200000000 
O 3.2100000000 8.4100000000 1.3300000000 
H 2.8500000000 9.2500000000 0.9600000000 
H 2.3600000000 8.0900000000 1.6400000000 
O 4.8100000000 1.8100000000 9.3000000000 
H 4.9700000000 2.4800000000 8.6400000000 
H 4.2300000000 2.3500000000 9.8600000000 
O 0.1300000000 8.2700000000 5.3300000000 
H 9.8600000000 7.3700000000 5.7300000000 
H 9.3400000000 8.9100000000 5.8200000000 
O 2.3600000000 6.4900000000 7.8800000000 
H 1.9900000000 7.3500000000 8.2100000000 
H 1.5600000000 5.8900000000 8.0700000000 
O 7.7100000000 9.2500000000 1.5500000000 
H 7.0200000000 8.7400000000 2.0600000000 
H 8.1500000000 0.0100000000 2.1200000000 
O 8.1700000000 4.3300000000 0.9700000000 
H 8.5400000000 4.0100000000 1.8200000000 
H 7.3400000000 4.7500000000 1.2100000000 
O 2.7900000000 5.4300000000 5.1900000000 
H 2.5700000000 4.4800000000 5.4200000000 
H 2.7700000000 5.7800000000 6.1500000000 
O 5.4600000000 3.6000000000 3.2700000000 
H 4.7800000000 2.8900000000 3.2100000000 
H 6.2600000000 3.1800000000 3.6600000000 
O 9.1400000000 4.5300000000 5.8500000000 
H 8.9700000000 4.2400000000 6.7200000000 
H 8.6700000000 5.3900000000 5.9200000000 
O 0.6400000000 7.7700000000 2.6000000000 
H 0.5500000000 7.9400000000 3.5700000000 
H 9.7100000000 8.2400000000 2.1800000000 
O 7.2800000000 6.8000000000 6.1500000000 
H 6.6600000000 6.8300000000 6.9200000000 
H 6.7300000000 6.8700000000 5.3300000000 
O 5.4400000000 6.3400000000 8.2700000000 
H 5.0700000000 5.8400000000 9.0600000000 
H 4.6700000000 6.4400000000 7.7800000000 
O 1.2100000000 0.6900000000 0.6700000000 
H 1.0100000000 1.4100000000 0.0200000000 
H 0.3200000000 0.6700000000 1.1800000000 
O 9.8000000000 3.6000000000 3.3300000000 
H 0.6600000000 4.1100000000 2.9100000000 
H 9.8000000000 4.0100000000 4.2100000000 
O 0.9500000000 2.4500000000 8.2900000000 
H 1.6800000000 2.4000000000 7.6700000000 
H 0.8800000000 3.3900000000 8.4500000000 
O 5.3400000000 6.1100000000 4.3200000000 
H 5.6300000000 5.2800000000 3.8100000000 
H 4.4100000000 5.9100000000 4.5400000000 
O 4.5000000000 4.2300000000 0.8400000000 
H 3.6100000000 4.4400000000 1.2000000000 
H 4.8500000000 3.8700000000 1.6700000000 
O 7.4100000000 3.4800000000 8.5500000000 
H 7.5400000000 4.0000000000 9.3700000000 
H 7.5200000000 2.5200000000 8.9100000000 
O 8.9200000000 0.6900000000 6.6900000000 
H 8.0500000000 0.6300000000 7.1400000000 
H 9.5100000000 1.1600000000 7.2900000000 
O 0.5000000000 8.4200000000 8.6100000000 
H 0.5200000000 9.4200000000 8.8200000000 
H 9.5000000000 8.1600000000 9.0100000000 
O 2.3200000000 5.1700000000 2.5600000000 
H 2.6700000000 5.2900000000 3.5300000000 
H 1.7400000000 5.9300000000 2.5400000000 
O 7.3200000000 0.7000000000 9.1000000000 
H 7.3800000000 0.2800000000 0.1100000000 
H 6.3900000000 0.7800000000 9.0200000000 
O 7.9500000000 7.3400000000 9.2900000000 
H 7.0600000000 6.9500000000 9.0600000000 
H 7.6100000000 8.1100000000 9.8300000000 
O 5.6400000000 2.5300000000 6.8600000000 
H 6.1400000000 2.4700000000 6.0000000000 
H 6.3200000000 3.0500000000 7.4300000000 
O 5.5000000000 8.1300000000 2.6100000000 
H 4.6000000000 8.0300000000 2.2200000000 
H 5.4900000000 7.4100000000 3.2900000000 
O 7.5300000000 2.2300000000 4.6800000000 
H 8.1400000000 3.0000000000 4.8900000000 
H 7.9500000000 1.4100000000 5.1800000000 
O 2.6000000000 2.6500000000 6.1900000000 
H 3.5200000000 2.7300000000 6.5100000000 
H 2.6600000000 1.9900000000 5.4700000000 

