&CONTROL
/
&SYSTEM
   ntyp             = 2
   nat              = 96
   ibrav            = 0
/
&ELECTRONS
/
&IONS
/
&CELL
/

ATOMIC_SPECIES
O 15.999 None
H 1.008 None

K_POINTS gamma

CELL_PARAMETERS angstrom
9.86520000000000 0.00000000000000 0.00000000000000
0.00000000000000 9.86520000000000 0.00000000000000
0.00000000000000 0.00000000000000 9.86520000000000

ATOMIC_POSITIONS angstrom
O 2.0200000000 7.2300000000 6.7400000000 
H 1.6800000000 7.8800000000 7.3400000000 
H 1.9500000000 6.3800000000 7.3100000000 
O 4.0800000000 8.2100000000 9.7100000000 
H 3.0900000000 8.2800000000 9.6000000000 
H 4.5300000000 9.0900000000 9.4100000000 
O 3.2600000000 2.4500000000 5.5300000000 
H 2.5700000000 2.3200000000 6.2500000000 
H 2.9200000000 2.9800000000 4.7200000000 
O 5.7700000000 0.7000000000 9.2400000000 
H 5.4100000000 0.5700000000 8.3100000000 
H 5.2800000000 1.4400000000 9.5000000000 
O 1.3900000000 8.5300000000 9.2200000000 
H 0.8400000000 8.2200000000 0.1600000000 
H 0.6100000000 9.0100000000 8.7800000000 
O 5.4800000000 0.3900000000 6.4100000000 
H 6.0600000000 0.1500000000 5.6300000000 
H 4.8900000000 1.0200000000 6.0000000000 
O 1.3500000000 1.6000000000 0.9900000000 
H 1.9300000000 0.8600000000 1.3200000000 
H 0.4500000000 1.1900000000 0.9900000000 
O 8.3000000000 0.3100000000 0.7400000000 
H 7.4100000000 0.4300000000 0.3600000000 
H 8.5900000000 9.3100000000 0.3100000000 
O 1.8300000000 4.3600000000 0.7700000000 
H 1.2900000000 3.5200000000 1.0200000000 
H 2.0300000000 4.8600000000 1.6400000000 
O 7.1700000000 5.4500000000 7.4100000000 
H 7.4600000000 6.2900000000 6.9700000000 
H 6.2100000000 5.6000000000 7.4100000000 
O 2.6500000000 5.0800000000 3.1800000000 
H 3.3700000000 4.7700000000 3.7900000000 
H 2.7700000000 6.0000000000 3.4500000000 
O 8.1000000000 4.1400000000 2.5000000000 
H 7.3000000000 3.5100000000 2.6400000000 
H 8.0800000000 4.3600000000 1.4900000000 
O 2.1600000000 4.6900000000 7.7100000000 
H 1.7800000000 3.7500000000 7.5800000000 
H 2.3200000000 4.6900000000 8.7200000000 
O 5.5100000000 2.5800000000 2.5300000000 
H 5.9500000000 1.7000000000 2.3100000000 
H 4.8000000000 2.6600000000 1.8200000000 
O 9.3100000000 7.5700000000 1.0500000000 
H 8.5500000000 6.9500000000 0.8600000000 
H 9.1700000000 7.6400000000 2.0400000000 
O 2.3000000000 7.6500000000 4.1100000000 
H 2.0500000000 7.4800000000 5.1100000000 
H 1.6000000000 8.2700000000 3.8400000000 
O 1.4800000000 2.1200000000 8.0300000000 
H 0.5500000000 1.7500000000 7.8500000000 
H 1.6400000000 1.9500000000 8.9400000000 
O 0.5200000000 2.3400000000 3.5400000000 
H 9.4800000000 2.8600000000 3.5000000000 
H 0.8400000000 2.3300000000 2.6400000000 
O 9.4000000000 6.2100000000 3.7200000000 
H 8.9000000000 5.5100000000 3.2400000000 
H 0.4000000000 5.9400000000 3.4800000000 
O 4.2400000000 3.2700000000 0.1300000000 
H 4.4500000000 3.8800000000 9.2600000000 
H 3.2900000000 3.4100000000 0.2800000000 
O 6.2200000000 7.3200000000 1.5100000000 
H 5.3800000000 7.6600000000 1.0700000000 
H 6.0000000000 7.1600000000 2.4200000000 
O 8.0700000000 7.5300000000 5.7400000000 
H 7.4800000000 7.5900000000 4.9100000000 
H 8.8600000000 7.0400000000 5.3400000000 
O 7.6900000000 5.3100000000 0.2200000000 
H 7.5900000000 5.4300000000 9.1100000000 
H 6.9600000000 5.9100000000 0.5700000000 
O 3.1100000000 0.2400000000 2.6100000000 
H 3.1500000000 0.4500000000 3.5400000000 
H 3.2000000000 9.1600000000 2.6600000000 
O 5.3900000000 7.3400000000 4.1300000000 
H 4.4400000000 7.7000000000 4.2400000000 
H 5.2800000000 6.4100000000 4.3600000000 
O 4.5700000000 5.7400000000 8.4600000000 
H 4.2700000000 6.3900000000 9.1100000000 
H 3.9900000000 5.9200000000 7.7500000000 
O 4.9100000000 4.5400000000 4.4900000000 
H 5.2300000000 4.0300000000 3.6800000000 
H 5.1900000000 3.9200000000 5.2400000000 
O 9.4200000000 9.2600000000 7.3500000000 
H 9.0400000000 0.2900000000 7.2800000000 
H 8.8800000000 8.5900000000 6.8200000000 
O 8.5600000000 1.9500000000 7.2400000000 
H 8.2500000000 2.7200000000 7.7400000000 
H 8.2700000000 2.3200000000 6.3700000000 
O 0.3700000000 9.6700000000 4.4500000000 
H 0.2200000000 9.7600000000 5.4100000000 
H 0.4000000000 0.7200000000 4.1500000000 
O 7.5900000000 0.2500000000 3.5400000000 
H 7.8000000000 0.1700000000 2.6300000000 
H 8.2700000000 9.6800000000 4.0900000000 
O 7.5800000000 3.7000000000 5.3300000000 
H 7.6100000000 4.4400000000 5.9800000000 
H 8.0900000000 4.0900000000 4.5500000000 

