&CONTROL
/
&SYSTEM
   ntyp             = 2
   nat              = 96
   ibrav            = 0
/
&ELECTRONS
/
&IONS
/
&CELL
/

ATOMIC_SPECIES
O 15.999 None
H 1.008 None

K_POINTS gamma

CELL_PARAMETERS angstrom
9.86520000000000 0.00000000000000 0.00000000000000
0.00000000000000 9.86520000000000 0.00000000000000
0.00000000000000 0.00000000000000 9.86520000000000

ATOMIC_POSITIONS angstrom
O 4.8300000000 3.8800000000 5.3500000000 
H 5.3800000000 4.4500000000 4.8900000000 
H 4.5100000000 3.4300000000 4.5000000000 
O 9.6800000000 2.3400000000 2.9800000000 
H 0.0100000000 3.1000000000 3.5500000000 
H 9.6300000000 2.8900000000 2.1100000000 
O 6.0300000000 6.3100000000 5.5300000000 
H 6.8400000000 6.7300000000 5.0600000000 
H 5.3100000000 6.7400000000 4.9400000000 
O 0.6100000000 9.2600000000 1.4300000000 
H 9.6500000000 9.7100000000 1.5400000000 
H 0.9100000000 9.5500000000 0.5400000000 
O 0.0900000000 4.6300000000 4.2400000000 
H 9.8400000000 5.3300000000 3.5400000000 
H 9.7900000000 5.1500000000 5.0500000000 
O 4.3800000000 3.1500000000 2.5600000000 
H 4.1200000000 3.7600000000 1.8400000000 
H 4.8000000000 2.4500000000 1.9900000000 
O 8.1400000000 8.2800000000 8.5600000000 
H 8.9600000000 8.7100000000 8.7200000000 
H 7.7900000000 8.8000000000 7.7800000000 
O 8.1700000000 7.4500000000 4.3000000000 
H 8.9900000000 7.5300000000 4.7500000000 
H 8.0600000000 8.3000000000 3.8100000000 
O 0.6400000000 1.0300000000 5.6800000000 
H 0.6600000000 1.2500000000 4.7300000000 
H 1.4100000000 0.4400000000 5.8700000000 
O 1.4700000000 2.2500000000 8.0400000000 
H 2.1000000000 1.5500000000 8.2800000000 
H 0.8200000000 1.8600000000 7.3800000000 
O 3.6300000000 0.5600000000 9.0400000000 
H 4.1900000000 0.7300000000 9.7400000000 
H 4.2600000000 0.8200000000 8.2900000000 
O 8.3000000000 2.7200000000 6.9900000000 
H 7.8300000000 3.6100000000 6.8300000000 
H 9.1500000000 3.0100000000 6.5100000000 
O 8.2100000000 0.1500000000 3.4900000000 
H 8.8000000000 0.9900000000 3.3900000000 
H 7.9300000000 9.6400000000 2.6100000000 
O 1.1700000000 8.7100000000 8.3900000000 
H 2.0900000000 9.0600000000 8.3100000000 
H 1.1100000000 8.2600000000 7.5100000000 
O 7.2000000000 8.5100000000 1.5000000000 
H 7.4500000000 8.3200000000 0.5800000000 
H 6.5600000000 7.8400000000 1.7000000000 
O 2.4400000000 4.7100000000 7.2100000000 
H 3.2900000000 4.4000000000 6.7000000000 
H 2.1100000000 3.8700000000 7.6200000000 
O 7.8700000000 9.8000000000 6.3700000000 
H 8.3600000000 0.7700000000 6.5500000000 
H 8.0400000000 9.7600000000 5.3600000000 
O 7.8700000000 1.6300000000 9.4400000000 
H 7.9200000000 1.6400000000 8.4500000000 
H 8.6300000000 2.2300000000 9.7000000000 
O 1.0400000000 7.1700000000 3.1500000000 
H 0.9900000000 8.0800000000 2.7300000000 
H 1.0900000000 6.5200000000 2.3400000000 
O 3.8300000000 7.0300000000 3.8200000000 
H 3.9100000000 7.7200000000 4.4800000000 
H 2.8200000000 7.0300000000 3.6800000000 
O 0.9300000000 6.8500000000 6.1100000000 
H 1.4300000000 6.9100000000 5.3200000000 
H 1.2400000000 6.1000000000 6.5900000000 
O 3.5800000000 4.7900000000 0.3400000000 
H 4.0000000000 4.4800000000 9.3500000000 
H 2.7800000000 5.1500000000 9.7500000000 
O 5.3100000000 1.2000000000 6.3600000000 
H 5.5600000000 2.0900000000 6.0700000000 
H 6.0900000000 0.7100000000 6.3500000000 
O 5.2700000000 3.9700000000 8.2600000000 
H 6.1600000000 4.3400000000 8.3100000000 
H 5.0700000000 3.9400000000 7.3200000000 
O 0.8900000000 6.2800000000 0.4600000000 
H 9.8100000000 6.2600000000 0.8100000000 
H 0.9600000000 6.9700000000 9.5700000000 
O 5.4200000000 1.7700000000 0.6000000000 
H 6.3600000000 1.5000000000 0.6000000000 
H 5.4200000000 2.5200000000 0.0600000000 
O 3.5400000000 9.4300000000 5.1800000000 
H 3.0900000000 0.2600000000 4.6000000000 
H 4.2800000000 0.0800000000 5.5100000000 
O 2.4600000000 1.4800000000 3.4700000000 
H 3.0200000000 2.1700000000 2.9400000000 
H 1.5200000000 1.5700000000 3.0600000000 
O 7.5500000000 5.5100000000 7.6300000000 
H 7.8300000000 6.2900000000 8.1400000000 
H 6.9900000000 5.9500000000 6.9000000000 
O 8.3700000000 5.6900000000 1.6400000000 
H 7.4400000000 5.6800000000 1.3100000000 
H 8.3500000000 6.1200000000 2.4800000000 
O 0.0100000000 3.4200000000 0.4300000000 
H 0.0600000000 4.4200000000 0.6300000000 
H 0.6000000000 3.3800000000 9.5400000000 
O 5.2900000000 6.3500000000 1.7200000000 
H 4.7700000000 5.6400000000 1.2200000000 
H 4.5900000000 6.6900000000 2.3800000000 

