&CONTROL
/
&SYSTEM
   ntyp             = 2
   nat              = 96
   ibrav            = 0
/
&ELECTRONS
/
&IONS
/
&CELL
/

ATOMIC_SPECIES
O 15.999 None
H 1.008 None

K_POINTS gamma

CELL_PARAMETERS angstrom
9.86520000000000 0.00000000000000 0.00000000000000
0.00000000000000 9.86520000000000 0.00000000000000
0.00000000000000 0.00000000000000 9.86520000000000

ATOMIC_POSITIONS angstrom
O 8.7600000000 2.4900000000 7.0900000000 
H 9.6300000000 2.6700000000 6.7300000000 
H 8.2000000000 3.2100000000 6.7500000000 
O 2.8900000000 3.9600000000 8.0500000000 
H 2.2700000000 4.5900000000 8.4900000000 
H 2.4700000000 3.8700000000 7.1400000000 
O 1.7800000000 4.5900000000 3.1100000000 
H 0.9500000000 4.1700000000 2.8100000000 
H 2.3900000000 3.9400000000 2.7400000000 
O 3.4800000000 6.5000000000 4.3200000000 
H 3.9400000000 7.0100000000 3.5800000000 
H 2.7800000000 5.9600000000 3.9200000000 
O 0.8000000000 1.2500000000 3.3800000000 
H 9.8200000000 1.1100000000 2.9200000000 
H 0.8500000000 0.4200000000 3.9500000000 
O 4.0100000000 9.3200000000 6.1600000000 
H 4.1200000000 9.7500000000 7.0600000000 
H 4.8700000000 9.4900000000 5.7300000000 
O 2.9600000000 2.2100000000 2.2100000000 
H 3.2400000000 1.2800000000 2.0200000000 
H 2.1000000000 1.9500000000 2.6200000000 
O 0.4300000000 9.4900000000 1.0400000000 
H 0.1100000000 9.4000000000 0.1200000000 
H 9.4800000000 9.6500000000 1.6000000000 
O 1.4500000000 6.5400000000 8.4800000000 
H 0.7700000000 6.5700000000 7.7500000000 
H 0.9300000000 6.6900000000 9.3000000000 
O 1.4500000000 9.5900000000 8.2800000000 
H 2.0800000000 0.0200000000 8.8700000000 
H 1.9700000000 9.5300000000 7.4600000000 
O 1.3200000000 3.3100000000 5.9400000000 
H 1.3000000000 4.1000000000 5.3000000000 
H 1.4000000000 2.5900000000 5.2700000000 
O 8.6100000000 9.4900000000 7.3400000000 
H 9.4800000000 9.2200000000 7.8100000000 
H 8.6500000000 0.6400000000 7.3200000000 
O 4.1900000000 7.0000000000 8.5200000000 
H 3.2800000000 6.7600000000 8.3100000000 
H 4.6200000000 6.9500000000 7.6800000000 
O 4.3800000000 0.6200000000 8.8600000000 
H 4.3500000000 1.5700000000 9.0000000000 
H 4.0500000000 0.3300000000 9.7300000000 
O 5.6400000000 6.8300000000 6.1800000000 
H 6.3700000000 7.1100000000 5.6300000000 
H 4.8800000000 6.7000000000 5.4600000000 
O 0.4400000000 7.0800000000 3.2300000000 
H 1.0100000000 6.2700000000 3.1200000000 
H 9.6700000000 6.9800000000 2.4600000000 
O 8.2500000000 3.9200000000 9.4800000000 
H 7.2500000000 3.8500000000 9.3500000000 
H 8.6200000000 3.4300000000 8.6600000000 
O 6.4400000000 0.1700000000 5.3600000000 
H 6.8800000000 9.5300000000 4.6000000000 
H 7.1500000000 0.1600000000 6.0700000000 
O 3.2800000000 9.4800000000 1.2000000000 
H 3.6900000000 8.6000000000 1.3800000000 
H 2.3100000000 9.2600000000 1.3100000000 
O 8.1900000000 0.3700000000 2.5000000000 
H 7.6200000000 9.7300000000 1.8800000000 
H 7.6100000000 1.0600000000 2.8700000000 
O 4.4700000000 4.1300000000 1.1000000000 
H 3.8800000000 3.4000000000 1.2900000000 
H 4.7800000000 4.0900000000 0.1600000000 
O 9.0100000000 3.7600000000 2.2500000000 
H 8.6800000000 3.6100000000 1.3200000000 
H 8.3500000000 3.3000000000 2.7700000000 
O 1.5100000000 8.9500000000 5.0200000000 
H 1.5300000000 8.3400000000 4.2700000000 
H 2.4700000000 9.1600000000 5.1600000000 
O 5.5500000000 3.8700000000 8.4300000000 
H 4.6600000000 3.9000000000 8.0200000000 
H 6.0700000000 4.1200000000 7.6100000000 
O 9.0700000000 6.4300000000 0.6300000000 
H 8.7100000000 5.5500000000 0.6200000000 
H 8.4700000000 6.9000000000 0.0100000000 
O 6.3600000000 9.2700000000 0.5700000000 
H 5.6700000000 9.4000000000 9.7700000000 
H 6.8100000000 8.5000000000 0.2000000000 
O 6.6400000000 2.6700000000 3.6000000000 
H 6.3700000000 3.6200000000 3.4500000000 
H 5.8900000000 2.3800000000 4.0900000000 
O 7.3400000000 7.3900000000 8.5500000000 
H 6.7100000000 7.0500000000 7.9200000000 
H 7.4300000000 8.3500000000 8.1800000000 
O 6.9200000000 4.3700000000 6.0400000000 
H 6.3700000000 5.1800000000 6.1200000000 
H 6.9900000000 4.2200000000 5.0600000000 
O 8.3600000000 8.0400000000 4.9900000000 
H 8.8000000000 8.7500000000 5.5200000000 
H 9.1800000000 7.7500000000 4.4200000000 
O 6.2600000000 5.3500000000 3.1000000000 
H 6.6400000000 6.1900000000 2.7500000000 
H 5.7200000000 5.1100000000 2.3400000000 
O 3.9700000000 6.9400000000 1.5800000000 
H 4.1200000000 7.2000000000 0.6900000000 
H 3.6600000000 5.9900000000 1.4800000000 

