&CONTROL
/
&SYSTEM
   ntyp             = 2
   nat              = 96
   ibrav            = 0
/
&ELECTRONS
/
&IONS
/
&CELL
/

ATOMIC_SPECIES
O 15.999 None
H 1.008 None

K_POINTS gamma

CELL_PARAMETERS angstrom
9.86520000000000 0.00000000000000 0.00000000000000
0.00000000000000 9.86520000000000 0.00000000000000
0.00000000000000 0.00000000000000 9.86520000000000

ATOMIC_POSITIONS angstrom
O 2.1800000000 5.8600000000 9.1200000000 
H 2.3100000000 5.5100000000 8.1800000000 
H 1.4900000000 6.5400000000 9.0400000000 
O 1.9500000000 4.5000000000 1.6700000000 
H 1.9900000000 4.9900000000 0.8000000000 
H 1.5600000000 5.1900000000 2.2800000000 
O 6.5300000000 0.7800000000 2.9300000000 
H 6.0900000000 0.3800000000 2.1500000000 
H 7.0200000000 0.1000000000 3.4500000000 
O 3.6500000000 1.0700000000 3.5200000000 
H 3.6000000000 0.3100000000 2.8700000000 
H 4.5400000000 1.0900000000 3.8300000000 
O 2.4600000000 8.2800000000 5.9400000000 
H 3.2900000000 8.0300000000 5.4100000000 
H 1.7700000000 8.4200000000 5.2300000000 
O 0.3500000000 2.0700000000 1.3800000000 
H 9.5000000000 2.3200000000 2.0200000000 
H 0.8400000000 2.8800000000 1.4000000000 
O 0.5600000000 9.4700000000 4.3000000000 
H 9.6200000000 9.7800000000 4.8800000000 
H 0.9000000000 0.4100000000 3.8100000000 
O 3.1800000000 8.3300000000 2.3300000000 
H 2.5900000000 8.5900000000 1.6600000000 
H 2.6800000000 7.5100000000 2.5800000000 
O 6.2600000000 2.9000000000 5.3100000000 
H 7.1100000000 2.7800000000 4.8800000000 
H 6.2900000000 3.7500000000 5.8000000000 
O 7.3200000000 3.2600000000 2.5600000000 
H 6.5300000000 3.6300000000 2.1100000000 
H 6.9200000000 2.3200000000 2.7200000000 
O 1.2500000000 6.5200000000 3.4400000000 
H 1.2300000000 6.5400000000 4.4300000000 
H 0.3100000000 6.1700000000 3.3600000000 
O 4.5000000000 7.3100000000 9.1800000000 
H 3.5700000000 7.1100000000 8.9500000000 
H 4.8500000000 6.4100000000 9.2500000000 
O 7.6700000000 5.8700000000 0.1300000000 
H 6.7500000000 5.5200000000 9.7700000000 
H 8.0700000000 6.0000000000 9.1100000000 
O 8.9900000000 5.4400000000 2.5000000000 
H 8.4300000000 4.6900000000 2.8400000000 
H 8.6000000000 5.6400000000 1.5800000000 
O 4.4800000000 3.7400000000 2.2200000000 
H 3.5200000000 3.9100000000 2.0700000000 
H 4.3800000000 3.3000000000 3.0500000000 
O 7.4800000000 8.0700000000 4.3300000000 
H 8.0400000000 8.0300000000 5.1400000000 
H 8.1600000000 7.8800000000 3.6200000000 
O 3.1800000000 4.5800000000 6.7800000000 
H 4.0600000000 5.0600000000 6.5800000000 
H 3.6100000000 3.7100000000 7.0600000000 
O 4.4900000000 2.3600000000 7.3800000000 
H 5.1200000000 2.3000000000 6.6600000000 
H 4.3600000000 1.3700000000 7.4100000000 
O 5.5300000000 5.6100000000 6.4100000000 
H 6.4100000000 5.8200000000 6.8100000000 
H 5.2900000000 6.4600000000 5.9400000000 
O 1.9100000000 1.6500000000 5.5400000000 
H 2.5300000000 1.1700000000 4.8400000000 
H 2.5100000000 2.1800000000 6.1400000000 
O 0.4300000000 5.2700000000 6.0800000000 
H 9.8300000000 4.4400000000 5.7500000000 
H 1.3000000000 4.9700000000 6.1600000000 
O 4.8500000000 7.7500000000 4.6300000000 
H 5.8200000000 8.0500000000 4.7100000000 
H 4.6500000000 7.8100000000 3.6400000000 
O 8.6400000000 8.7100000000 1.7000000000 
H 7.8200000000 9.1500000000 1.3900000000 
H 8.5800000000 7.8800000000 1.2200000000 
O 9.7300000000 1.6600000000 8.3300000000 
H 0.4500000000 2.3500000000 7.9500000000 
H 9.4600000000 2.0400000000 9.2400000000 
O 5.9000000000 9.3600000000 0.6400000000 
H 5.7400000000 0.1700000000 9.7800000000 
H 5.4600000000 8.5500000000 0.3300000000 
O 0.7200000000 7.9400000000 8.3500000000 
H 0.7900000000 8.7600000000 9.0400000000 
H 1.2500000000 8.1500000000 7.5000000000 
O 8.3600000000 6.6400000000 7.4100000000 
H 8.9100000000 6.1600000000 6.8500000000 
H 8.9800000000 7.2500000000 7.7900000000 
O 4.5700000000 9.5600000000 7.4400000000 
H 4.4900000000 8.8600000000 8.0600000000 
H 3.8800000000 9.2500000000 6.8800000000 
O 1.2600000000 9.5000000000 0.6500000000 
H 0.4600000000 9.1200000000 1.1500000000 
H 1.0800000000 0.5900000000 0.7900000000 
O 5.1900000000 4.6000000000 9.4600000000 
H 4.9600000000 3.9300000000 8.6700000000 
H 4.9100000000 4.1000000000 0.3800000000 
O 8.2600000000 0.1600000000 6.4800000000 
H 7.3900000000 0.0400000000 6.8800000000 
H 8.8800000000 0.4800000000 7.1800000000 
O 9.3000000000 2.7400000000 5.5600000000 
H 0.3400000000 2.3600000000 5.5200000000 
H 8.7300000000 1.9600000000 5.7900000000 

