&CONTROL
/
&SYSTEM
   ntyp             = 2
   nat              = 96
   ibrav            = 0
/
&ELECTRONS
/
&IONS
/
&CELL
/

ATOMIC_SPECIES
O 15.999 None
H 1.008 None

K_POINTS gamma

CELL_PARAMETERS angstrom
9.86520000000000 0.00000000000000 0.00000000000000
0.00000000000000 9.86520000000000 0.00000000000000
0.00000000000000 0.00000000000000 9.86520000000000

ATOMIC_POSITIONS angstrom
O 5.4500000000 7.4600000000 2.4300000000 
H 5.9100000000 6.9700000000 3.1500000000 
H 4.5300000000 7.2100000000 2.5900000000 
O 5.4600000000 4.9500000000 9.0400000000 
H 5.8100000000 4.9900000000 0.1100000000 
H 6.2400000000 5.0300000000 8.4200000000 
O 7.5200000000 2.4600000000 6.1400000000 
H 8.0300000000 1.7000000000 5.8100000000 
H 7.1200000000 2.0600000000 6.9900000000 
O 6.6300000000 3.4400000000 3.2900000000 
H 6.0400000000 2.7300000000 2.9800000000 
H 7.0500000000 2.9800000000 4.0300000000 
O 1.5100000000 2.5400000000 1.9200000000 
H 1.7400000000 2.5100000000 0.9500000000 
H 1.9300000000 1.7400000000 2.2300000000 
O 3.4800000000 3.7300000000 4.6300000000 
H 3.7000000000 3.4300000000 5.5500000000 
H 3.8300000000 3.0200000000 4.0500000000 
O 4.3200000000 2.8000000000 7.4400000000 
H 4.8900000000 3.2500000000 8.1100000000 
H 3.8100000000 2.1800000000 7.9800000000 
O 5.8600000000 6.9900000000 5.3000000000 
H 5.4900000000 7.5300000000 5.9900000000 
H 6.3500000000 6.3100000000 5.8400000000 
O 2.6600000000 0.3000000000 3.4000000000 
H 2.3400000000 9.4000000000 2.8400000000 
H 2.7400000000 9.8100000000 4.3500000000 
O 5.0400000000 1.3400000000 2.6300000000 
H 5.1000000000 0.3600000000 2.3900000000 
H 4.1200000000 1.2500000000 2.9600000000 
O 9.0000000000 1.3800000000 2.8500000000 
H 9.0100000000 1.1300000000 3.7800000000 
H 9.7100000000 2.0600000000 2.6800000000 
O 6.3000000000 9.0600000000 0.3300000000 
H 7.2200000000 9.2900000000 0.5500000000 
H 6.0400000000 8.4200000000 1.0200000000 
O 8.2800000000 2.6900000000 0.4200000000 
H 7.7700000000 3.4000000000 0.9100000000 
H 8.1800000000 2.0100000000 1.1300000000 
O 2.5500000000 1.5700000000 9.3300000000 
H 1.7300000000 1.7900000000 8.8300000000 
H 2.6000000000 0.5600000000 9.2000000000 
O 8.8400000000 9.4600000000 0.7500000000 
H 9.0900000000 8.5800000000 1.1200000000 
H 9.0600000000 0.2300000000 1.5200000000 
O 3.4300000000 6.4600000000 4.6300000000 
H 3.4100000000 5.5300000000 4.9500000000 
H 4.3900000000 6.8000000000 4.8800000000 
O 9.8000000000 6.8000000000 7.7800000000 
H 9.3900000000 7.7200000000 7.7500000000 
H 0.1100000000 6.6200000000 8.7500000000 
O 9.4400000000 9.6800000000 5.1900000000 
H 0.4600000000 9.4900000000 5.0700000000 
H 9.3700000000 9.6400000000 6.1900000000 
O 8.6600000000 7.3200000000 3.3100000000 
H 9.5300000000 7.6100000000 2.9400000000 
H 8.3900000000 8.0500000000 3.8700000000 
O 2.2300000000 8.7400000000 5.8000000000 
H 2.2700000000 7.8900000000 5.3600000000 
H 3.0400000000 8.7100000000 6.3900000000 
O 5.2200000000 8.3100000000 7.6600000000 
H 4.7900000000 7.8100000000 8.3600000000 
H 5.8300000000 8.8700000000 8.2200000000 
O 2.0700000000 8.7800000000 9.1900000000 
H 1.2700000000 8.6300000000 8.6800000000 
H 2.4300000000 7.9100000000 8.8600000000 
O 7.8400000000 5.2500000000 1.7300000000 
H 7.2900000000 4.6900000000 2.3000000000 
H 8.0300000000 5.9000000000 2.4800000000 
O 0.2600000000 2.4700000000 8.1000000000 
H 9.5900000000 2.6700000000 8.9000000000 
H 0.1600000000 3.2600000000 7.4900000000 
O 0.2600000000 6.2700000000 0.5200000000 
H 0.7500000000 5.6200000000 1.0100000000 
H 9.2600000000 5.9000000000 0.7300000000 
O 9.4800000000 9.6200000000 7.9100000000 
H 0.0000000000 0.6700000000 7.9500000000 
H 8.9900000000 9.7000000000 8.8000000000 
O 1.9700000000 5.0700000000 2.2900000000 
H 2.6000000000 5.1200000000 3.0500000000 
H 1.7900000000 4.1200000000 2.1500000000 
O 1.4200000000 7.9100000000 2.4000000000 
H 1.7800000000 7.0900000000 2.7300000000 
H 1.5700000000 7.7300000000 1.4100000000 
O 7.5100000000 5.1300000000 7.1100000000 
H 8.3300000000 5.6600000000 7.3100000000 
H 7.8500000000 4.3800000000 6.6200000000 
O 6.5400000000 1.4500000000 8.4100000000 
H 7.2300000000 1.9600000000 8.9100000000 
H 6.1600000000 0.8300000000 9.0600000000 
O 0.8800000000 4.4600000000 6.4500000000 
H 1.4400000000 4.2600000000 5.6800000000 
H 0.8900000000 5.4100000000 6.5000000000 
O 3.3600000000 6.3700000000 8.7500000000 
H 2.5800000000 5.7300000000 8.5700000000 
H 4.1900000000 5.7500000000 8.9500000000 

