&CONTROL
/
&SYSTEM
   ntyp             = 2
   nat              = 96
   ibrav            = 0
/
&ELECTRONS
/
&IONS
/
&CELL
/

ATOMIC_SPECIES
O 15.999 None
H 1.008 None

K_POINTS gamma

CELL_PARAMETERS angstrom
9.86520000000000 0.00000000000000 0.00000000000000
0.00000000000000 9.86520000000000 0.00000000000000
0.00000000000000 0.00000000000000 9.86520000000000

ATOMIC_POSITIONS angstrom
O 9.5700000000 3.3000000000 5.9700000000 
H 9.6900000000 2.7500000000 6.7400000000 
H 0.5000000000 3.8100000000 6.1900000000 
O 9.5300000000 6.6900000000 4.9400000000 
H 8.9800000000 6.4100000000 4.1500000000 
H 0.5200000000 6.9400000000 4.4700000000 
O 0.9000000000 2.3900000000 9.4300000000 
H 0.8400000000 1.8400000000 8.5700000000 
H 1.5700000000 2.0300000000 0.1900000000 
O 7.3900000000 6.4700000000 3.2500000000 
H 6.9600000000 5.7500000000 2.7800000000 
H 7.1900000000 7.2600000000 2.6700000000 
O 5.5700000000 3.2000000000 3.7900000000 
H 6.2200000000 2.7600000000 4.4000000000 
H 6.1300000000 3.1300000000 2.9900000000 
O 6.1000000000 8.7700000000 1.6800000000 
H 6.0200000000 9.2900000000 2.4900000000 
H 6.8100000000 9.1800000000 1.1300000000 
O 9.4100000000 2.6700000000 3.2700000000 
H 0.1300000000 3.4000000000 2.9800000000 
H 9.4700000000 2.8900000000 4.2200000000 
O 0.3400000000 0.8700000000 7.4000000000 
H 0.2500000000 9.7300000000 7.4300000000 
H 1.2700000000 0.8900000000 7.0000000000 
O 4.6100000000 7.4800000000 9.7900000000 
H 5.1800000000 8.0300000000 9.2600000000 
H 4.8900000000 7.9100000000 0.7700000000 
O 6.8900000000 1.0100000000 8.1100000000 
H 6.3600000000 0.1300000000 8.0600000000 
H 7.7900000000 0.8100000000 8.5500000000 
O 5.3300000000 2.0100000000 0.4900000000 
H 6.0000000000 2.5400000000 0.9200000000 
H 5.7800000000 1.8900000000 9.4900000000 
O 7.5100000000 3.5400000000 1.5300000000 
H 8.1500000000 4.0400000000 0.9300000000 
H 8.1100000000 3.0600000000 2.1600000000 
O 8.3500000000 9.6500000000 0.7500000000 
H 9.0800000000 0.1400000000 1.3700000000 
H 8.7000000000 8.7700000000 0.5400000000 
O 0.3300000000 9.7400000000 2.6900000000 
H 1.1700000000 0.2300000000 2.3600000000 
H 9.7400000000 0.7000000000 3.0000000000 
O 6.4600000000 9.6000000000 4.3000000000 
H 6.6000000000 0.6700000000 4.7200000000 
H 7.2900000000 9.1600000000 4.5400000000 
O 4.7300000000 5.2200000000 5.4300000000 
H 4.8600000000 4.5900000000 4.6700000000 
H 5.4500000000 5.0300000000 6.0100000000 
O 7.2000000000 1.9500000000 5.6400000000 
H 7.0100000000 1.6500000000 6.5900000000 
H 7.9700000000 2.4800000000 5.8000000000 
O 2.1500000000 6.9500000000 8.5100000000 
H 2.9700000000 7.1500000000 9.0100000000 
H 2.3500000000 7.4900000000 7.6100000000 
O 4.2700000000 7.8200000000 4.5600000000 
H 4.4500000000 6.9700000000 5.0000000000 
H 5.0900000000 8.4200000000 4.6300000000 
O 9.4000000000 8.1800000000 7.1900000000 
H 0.3000000000 7.6900000000 7.5300000000 
H 9.3100000000 7.7000000000 6.2900000000 
O 1.5400000000 4.6300000000 2.6700000000 
H 1.6700000000 5.4900000000 3.1500000000 
H 1.9600000000 4.7400000000 1.7500000000 
O 2.4800000000 8.6200000000 6.4800000000 
H 2.8100000000 9.6100000000 6.5100000000 
H 3.1100000000 8.3200000000 5.7600000000 
O 1.6200000000 7.4100000000 3.1800000000 
H 1.2000000000 8.2800000000 3.3100000000 
H 2.6200000000 7.4800000000 3.3100000000 
O 0.3800000000 7.4700000000 0.6700000000 
H 1.1400000000 7.4200000000 0.0900000000 
H 0.7600000000 7.5700000000 1.6200000000 
O 3.8300000000 5.0700000000 1.1900000000 
H 4.4000000000 4.5200000000 0.6400000000 
H 4.1000000000 5.9700000000 0.8800000000 
O 9.3900000000 5.4200000000 8.9600000000 
H 0.1700000000 4.7100000000 8.9200000000 
H 9.8100000000 6.2200000000 9.4200000000 
O 3.0000000000 1.5900000000 6.5300000000 
H 3.1400000000 1.8700000000 5.5600000000 
H 2.8800000000 2.4600000000 6.9700000000 
O 6.6200000000 5.4000000000 7.5200000000 
H 6.9700000000 5.2800000000 8.4600000000 
H 7.4200000000 5.4000000000 6.9800000000 
O 6.4600000000 8.2000000000 7.9300000000 
H 7.4000000000 8.0400000000 7.7700000000 
H 6.0300000000 7.3800000000 7.5900000000 
O 2.5700000000 1.3500000000 1.4100000000 
H 3.4400000000 1.3800000000 0.9200000000 
H 2.6900000000 1.9200000000 2.2200000000 
O 2.8900000000 2.5600000000 3.9600000000 
H 3.8300000000 2.6500000000 3.6500000000 
H 2.4100000000 3.2800000000 3.5700000000 
O 2.3500000000 4.7200000000 7.0200000000 
H 2.2300000000 5.4700000000 7.6200000000 
H 3.1200000000 4.9800000000 6.4600000000 

