&CONTROL
/
&SYSTEM
   ntyp             = 2
   nat              = 96
   ibrav            = 0
/
&ELECTRONS
/
&IONS
/
&CELL
/

ATOMIC_SPECIES
O 15.999 None
H 1.008 None

K_POINTS gamma

CELL_PARAMETERS angstrom
9.86520000000000 0.00000000000000 0.00000000000000
0.00000000000000 9.86520000000000 0.00000000000000
0.00000000000000 0.00000000000000 9.86520000000000

ATOMIC_POSITIONS angstrom
O 5.4300000000 0.5500000000 9.6000000000 
H 5.0800000000 0.5900000000 8.6800000000 
H 6.3200000000 0.3100000000 9.5300000000 
O 1.4600000000 9.3400000000 7.8000000000 
H 2.0900000000 9.5200000000 7.1000000000 
H 0.9500000000 0.2900000000 7.7500000000 
O 5.4600000000 5.1800000000 4.1800000000 
H 4.6400000000 5.3300000000 4.7400000000 
H 5.1200000000 4.8500000000 3.3100000000 
O 9.5900000000 0.8700000000 4.5400000000 
H 0.5600000000 1.1700000000 4.1300000000 
H 9.6000000000 1.3500000000 5.3900000000 
O 7.0800000000 3.5000000000 0.7600000000 
H 7.7600000000 4.1300000000 1.0800000000 
H 7.5100000000 2.6900000000 1.1100000000 
O 4.6700000000 3.9500000000 9.2900000000 
H 5.5000000000 3.6500000000 9.8000000000 
H 4.4100000000 3.2600000000 8.6500000000 
O 7.3500000000 3.1100000000 5.3700000000 
H 7.0400000000 3.9500000000 4.9300000000 
H 8.2900000000 2.9600000000 5.0400000000 
O 0.6800000000 0.6100000000 1.5500000000 
H 0.9500000000 1.3400000000 0.9600000000 
H 1.2000000000 0.7400000000 2.3200000000 
O 2.6900000000 8.1800000000 3.4300000000 
H 2.9300000000 7.7800000000 2.5800000000 
H 3.4800000000 7.8800000000 3.8500000000 
O 9.0200000000 5.6700000000 2.0500000000 
H 0.0100000000 6.2000000000 1.9200000000 
H 8.3800000000 6.3200000000 1.6100000000 
O 5.0400000000 8.3700000000 6.1600000000 
H 5.8000000000 7.8200000000 5.7700000000 
H 5.1300000000 9.2300000000 5.6800000000 
O 7.2100000000 5.3600000000 7.4600000000 
H 6.6500000000 4.7200000000 7.0900000000 
H 7.3400000000 6.1200000000 6.8300000000 
O 9.8000000000 8.0400000000 4.1100000000 
H 9.6800000000 9.1100000000 4.1200000000 
H 0.8400000000 7.9000000000 3.6800000000 
O 1.5200000000 2.6500000000 0.0200000000 
H 2.1700000000 2.1600000000 9.2300000000 
H 1.2900000000 3.4200000000 9.3900000000 
O 7.7700000000 0.9500000000 2.4600000000 
H 8.3100000000 0.9700000000 3.3200000000 
H 8.5700000000 0.9600000000 1.9300000000 
O 0.4700000000 2.1800000000 6.7500000000 
H 9.7700000000 2.7700000000 7.3500000000 
H 1.2400000000 2.7300000000 6.5300000000 
O 2.4100000000 1.4400000000 3.3800000000 
H 2.6300000000 2.2800000000 3.7900000000 
H 3.3100000000 1.1200000000 3.1100000000 
O 3.4900000000 8.5900000000 0.1800000000 
H 2.9000000000 8.8600000000 9.2500000000 
H 4.1100000000 9.3400000000 0.1400000000 
O 2.8100000000 3.6200000000 5.1700000000 
H 3.4700000000 4.3400000000 5.4100000000 
H 2.2000000000 4.1900000000 4.6400000000 
O 2.3100000000 4.2600000000 2.3800000000 
H 2.9900000000 4.9800000000 2.1400000000 
H 2.0100000000 3.9700000000 1.4800000000 
O 7.3600000000 7.0600000000 5.3600000000 
H 8.1100000000 7.4800000000 4.8500000000 
H 7.0300000000 6.3900000000 4.6300000000 
O 3.4500000000 6.1900000000 5.9300000000 
H 2.5900000000 6.6200000000 6.0900000000 
H 4.0700000000 6.9300000000 6.2000000000 
O 5.0700000000 0.8800000000 2.5600000000 
H 6.1000000000 0.9900000000 2.6300000000 
H 5.0200000000 0.4200000000 1.7300000000 
O 7.2700000000 8.7000000000 8.3800000000 
H 6.3800000000 8.7700000000 7.9400000000 
H 7.9300000000 8.5600000000 7.7100000000 
O 9.8400000000 3.6200000000 3.6400000000 
H 9.3400000000 4.3300000000 3.0700000000 
H 0.8400000000 3.4800000000 3.2100000000 
O 0.8500000000 6.7100000000 6.4000000000 
H 0.3300000000 7.1800000000 5.6700000000 
H 0.9100000000 7.4000000000 7.1400000000 
O 5.3200000000 1.1900000000 5.4300000000 
H 5.1000000000 1.1300000000 4.4800000000 
H 6.2000000000 1.5900000000 5.5100000000 
O 0.9500000000 7.5500000000 1.1600000000 
H 1.4600000000 7.3700000000 0.3700000000 
H 1.0500000000 8.5500000000 1.2400000000 
O 3.6100000000 1.8700000000 7.4000000000 
H 4.3300000000 1.5600000000 6.8700000000 
H 3.2300000000 2.4700000000 6.6700000000 
O 7.3500000000 6.6700000000 0.3200000000 
H 6.9400000000 5.9300000000 9.6300000000 
H 7.3000000000 7.5100000000 9.6100000000 
O 0.4600000000 4.5900000000 8.3700000000 
H 9.4000000000 4.9100000000 8.3300000000 
H 0.9500000000 5.3100000000 7.8400000000 
O 4.1800000000 6.2300000000 1.5100000000 
H 4.3200000000 5.5500000000 0.8000000000 
H 4.0900000000 7.0400000000 1.0000000000 

