&CONTROL
/
&SYSTEM
   ntyp             = 2
   nat              = 96
   ibrav            = 0
/
&ELECTRONS
/
&IONS
/
&CELL
/

ATOMIC_SPECIES
O 15.999 None
H 1.008 None

K_POINTS gamma

CELL_PARAMETERS angstrom
9.86520000000000 0.00000000000000 0.00000000000000
0.00000000000000 9.86520000000000 0.00000000000000
0.00000000000000 0.00000000000000 9.86520000000000

ATOMIC_POSITIONS angstrom
O 4.9200000000 8.1200000000 5.5900000000 
H 4.3200000000 8.9100000000 5.6000000000 
H 4.3400000000 7.3200000000 5.9300000000 
O 9.3400000000 9.5900000000 7.5400000000 
H 9.7200000000 9.8600000000 6.6800000000 
H 8.5500000000 8.9600000000 7.3700000000 
O 7.4200000000 7.6300000000 6.6500000000 
H 7.4800000000 6.6600000000 6.6100000000 
H 6.5600000000 7.7800000000 6.1500000000 
O 5.0600000000 1.5700000000 4.3600000000 
H 6.0000000000 1.3500000000 4.2000000000 
H 5.1500000000 1.7100000000 5.3100000000 
O 2.4300000000 5.4400000000 0.2900000000 
H 1.8700000000 4.6400000000 0.0000000000 
H 1.7700000000 6.1100000000 0.4200000000 
O 5.4800000000 2.5900000000 7.1400000000 
H 5.2900000000 3.3200000000 7.8300000000 
H 4.9900000000 1.8000000000 7.4800000000 
O 5.3700000000 4.3800000000 9.5500000000 
H 5.6500000000 3.5500000000 0.2500000000 
H 4.4700000000 4.5700000000 0.0800000000 
O 4.9000000000 9.3800000000 2.3200000000 
H 4.9900000000 0.1500000000 3.1400000000 
H 3.9800000000 8.9800000000 2.1900000000 
O 0.8900000000 3.3400000000 9.0900000000 
H 1.0800000000 3.7800000000 8.2100000000 
H 9.7600000000 3.1900000000 9.0000000000 
O 2.4300000000 1.6300000000 4.0400000000 
H 2.1100000000 2.5300000000 3.9400000000 
H 3.4300000000 1.6500000000 3.9500000000 
O 9.5400000000 1.1000000000 1.9300000000 
H 0.4800000000 1.1200000000 1.3700000000 
H 9.0000000000 1.9100000000 1.6100000000 
O 3.5800000000 0.5000000000 8.5600000000 
H 3.7600000000 9.6200000000 9.1500000000 
H 3.0000000000 1.0700000000 9.1100000000 
O 0.3400000000 3.3100000000 4.1500000000 
H 0.1400000000 2.4800000000 3.5900000000 
H 9.5500000000 3.8600000000 3.7600000000 
O 1.0200000000 4.6600000000 6.7500000000 
H 0.8000000000 4.2100000000 5.8600000000 
H 0.8600000000 5.5900000000 6.4800000000 
O 7.3700000000 8.0300000000 1.3100000000 
H 7.3900000000 8.8200000000 0.6800000000 
H 6.6800000000 8.4400000000 1.8300000000 
O 5.5400000000 2.5000000000 1.6100000000 
H 5.3800000000 1.6700000000 2.0900000000 
H 4.9800000000 3.1100000000 2.2000000000 
O 5.4100000000 5.8300000000 3.7300000000 
H 5.2200000000 6.5700000000 4.3300000000 
H 6.3800000000 5.9400000000 3.6700000000 
O 4.3500000000 7.7600000000 9.3400000000 
H 5.3000000000 7.7000000000 9.1800000000 
H 4.0900000000 6.9400000000 8.9000000000 
O 0.4400000000 9.6100000000 4.4400000000 
H 0.4800000000 9.7500000000 3.4300000000 
H 1.2900000000 0.2100000000 4.6900000000 
O 0.7500000000 7.3100000000 5.9900000000 
H 0.2500000000 8.0200000000 5.5000000000 
H 1.4700000000 7.8800000000 6.3900000000 
O 3.6900000000 4.1600000000 2.6200000000 
H 4.4100000000 4.7600000000 2.8300000000 
H 3.1400000000 4.7400000000 2.0300000000 
O 3.5200000000 6.2000000000 6.7100000000 
H 3.9800000000 5.6200000000 6.0800000000 
H 2.7300000000 5.6300000000 6.9200000000 
O 2.4100000000 8.3300000000 1.4200000000 
H 1.5900000000 8.2800000000 0.8800000000 
H 3.0700000000 8.1000000000 0.7900000000 
O 8.1500000000 2.4100000000 8.2300000000 
H 8.4400000000 1.5100000000 8.0400000000 
H 7.2500000000 2.4700000000 7.7500000000 
O 2.1400000000 1.6300000000 0.7200000000 
H 2.6500000000 2.2300000000 1.3400000000 
H 1.7000000000 2.2500000000 0.1500000000 
O 8.1500000000 5.8900000000 3.0600000000 
H 7.8200000000 6.5500000000 2.3700000000 
H 9.0700000000 6.2600000000 3.1300000000 
O 1.1600000000 6.4100000000 3.2500000000 
H 1.7800000000 7.0900000000 2.8200000000 
H 1.1300000000 6.5000000000 4.2900000000 
O 2.7300000000 9.5300000000 6.0200000000 
H 2.8500000000 0.5400000000 5.5400000000 
H 2.7700000000 9.8600000000 6.9800000000 
O 7.5000000000 0.8600000000 3.8500000000 
H 8.0600000000 0.6300000000 3.0800000000 
H 8.2100000000 0.6200000000 4.4600000000 
O 7.4600000000 5.0000000000 6.2500000000 
H 8.2300000000 4.3600000000 6.4100000000 
H 7.0400000000 4.6500000000 5.4700000000 
O 0.5700000000 7.7300000000 9.3400000000 
H 9.6600000000 7.1300000000 9.3000000000 
H 0.0700000000 8.4800000000 8.9300000000 
O 8.3300000000 3.4800000000 1.5900000000 
H 7.5200000000 3.0900000000 1.3700000000 
H 7.9900000000 4.3600000000 1.7600000000 

