&CONTROL
/
&SYSTEM
   ntyp             = 2
   nat              = 96
   ibrav            = 0
/
&ELECTRONS
/
&IONS
/
&CELL
/

ATOMIC_SPECIES
O 15.999 None
H 1.008 None

K_POINTS gamma

CELL_PARAMETERS angstrom
9.86520000000000 0.00000000000000 0.00000000000000
0.00000000000000 9.86520000000000 0.00000000000000
0.00000000000000 0.00000000000000 9.86520000000000

ATOMIC_POSITIONS angstrom
O 3.5900000000 7.4800000000 0.0700000000 
H 3.6500000000 6.4900000000 9.8200000000 
H 3.6600000000 7.8300000000 8.9900000000 
O 9.0200000000 4.8700000000 0.4900000000 
H 9.6300000000 5.4100000000 1.0000000000 
H 8.1700000000 5.4200000000 0.7100000000 
O 3.1400000000 3.6000000000 2.8500000000 
H 4.0200000000 3.2800000000 2.6600000000 
H 2.8700000000 3.8600000000 1.9400000000 
O 6.6500000000 5.8000000000 1.2800000000 
H 6.7000000000 6.7200000000 1.6100000000 
H 6.2600000000 5.9200000000 0.4300000000 
O 5.4100000000 2.4200000000 9.7500000000 
H 5.3900000000 2.5700000000 8.7800000000 
H 4.5400000000 1.9300000000 9.8200000000 
O 4.2700000000 3.3000000000 7.5100000000 
H 4.5100000000 3.6300000000 6.6800000000 
H 3.3500000000 3.1600000000 7.4000000000 
O 9.0200000000 4.3800000000 3.6800000000 
H 8.9800000000 4.4000000000 2.7000000000 
H 8.7700000000 5.3100000000 3.9100000000 
O 7.4300000000 9.0700000000 8.9100000000 
H 7.3300000000 9.2600000000 7.9200000000 
H 6.5700000000 8.5700000000 8.9900000000 
O 0.9400000000 6.5800000000 1.8000000000 
H 1.7500000000 6.3000000000 1.3600000000 
H 0.5400000000 7.2900000000 1.1800000000 
O 3.0600000000 8.6100000000 5.2600000000 
H 3.0700000000 9.5900000000 5.0600000000 
H 3.3900000000 8.2500000000 4.4000000000 
O 0.4000000000 2.4200000000 9.6900000000 
H 9.8000000000 1.6300000000 0.2500000000 
H 9.8100000000 3.2400000000 0.1000000000 
O 0.2500000000 9.7700000000 4.7400000000 
H 9.4600000000 0.5300000000 4.3000000000 
H 1.1200000000 0.2900000000 4.4500000000 
O 8.2400000000 1.5500000000 3.4500000000 
H 8.5800000000 2.4300000000 3.7500000000 
H 8.0900000000 1.7200000000 2.5100000000 
O 8.3100000000 6.5900000000 6.4000000000 
H 9.1100000000 7.1300000000 6.5500000000 
H 8.1600000000 6.7800000000 5.4300000000 
O 9.3300000000 7.2100000000 3.9500000000 
H 9.6800000000 8.1000000000 4.2700000000 
H 0.2000000000 6.9900000000 3.3200000000 
O 1.7000000000 2.4100000000 7.2400000000 
H 1.3900000000 2.4600000000 8.2000000000 
H 0.8100000000 2.4100000000 6.7700000000 
O 1.5400000000 5.2300000000 8.3800000000 
H 1.1600000000 6.1700000000 8.4300000000 
H 0.7600000000 4.6400000000 8.2200000000 
O 3.5900000000 4.7700000000 9.8300000000 
H 4.0300000000 3.9800000000 9.3600000000 
H 2.8700000000 5.0600000000 9.2100000000 
O 7.9000000000 1.4900000000 0.6000000000 
H 7.9700000000 0.6700000000 0.0500000000 
H 7.1900000000 2.1100000000 0.3200000000 
O 9.0200000000 4.1000000000 7.5200000000 
H 8.4600000000 4.7400000000 7.0400000000 
H 8.8000000000 4.3300000000 8.4800000000 
O 7.0200000000 0.2200000000 6.0300000000 
H 6.1200000000 0.7000000000 5.9800000000 
H 7.3700000000 0.4800000000 5.1800000000 
O 2.5700000000 1.4800000000 4.6200000000 
H 2.1900000000 1.7700000000 5.5000000000 
H 2.6500000000 2.2600000000 4.0300000000 
O 0.2100000000 8.2700000000 9.6000000000 
H 0.7100000000 8.2100000000 8.7600000000 
H 9.0900000000 8.4400000000 9.4100000000 
O 4.0600000000 7.0400000000 7.1900000000 
H 3.9400000000 7.8400000000 6.5200000000 
H 3.8000000000 6.2400000000 6.5900000000 
O 2.9400000000 1.2600000000 9.8200000000 
H 2.6200000000 0.4200000000 0.2000000000 
H 2.1000000000 1.6900000000 9.6500000000 
O 6.9700000000 8.4500000000 2.1900000000 
H 7.8700000000 8.3600000000 2.5300000000 
H 6.6300000000 9.3100000000 2.4700000000 
O 3.0800000000 5.2500000000 5.4000000000 
H 3.3300000000 4.9300000000 4.5000000000 
H 2.1000000000 5.1600000000 5.5000000000 
O 6.4700000000 6.3700000000 8.3100000000 
H 7.1100000000 6.3900000000 7.6300000000 
H 5.6400000000 6.6700000000 7.8900000000 
O 1.0900000000 8.3100000000 7.0700000000 
H 1.8300000000 8.1200000000 6.4300000000 
H 0.6300000000 9.1100000000 6.6600000000 
O 5.2500000000 0.7100000000 3.5500000000 
H 5.4500000000 1.6000000000 3.3300000000 
H 4.3200000000 0.7700000000 3.9100000000 
O 5.8300000000 3.4100000000 2.3100000000 
H 5.7400000000 3.2000000000 1.3200000000 
H 6.1900000000 4.3100000000 2.3000000000 
O 3.6900000000 8.3100000000 2.7000000000 
H 4.4700000000 8.9000000000 2.6500000000 
H 3.5200000000 8.1300000000 1.7500000000 

