&CONTROL
/
&SYSTEM
   ntyp             = 2
   nat              = 96
   ibrav            = 0
/
&ELECTRONS
/
&IONS
/
&CELL
/

ATOMIC_SPECIES
O 15.999 None
H 1.008 None

K_POINTS gamma

CELL_PARAMETERS angstrom
9.86520000000000 0.00000000000000 0.00000000000000
0.00000000000000 9.86520000000000 0.00000000000000
0.00000000000000 0.00000000000000 9.86520000000000

ATOMIC_POSITIONS angstrom
O 6.8900000000 8.7300000000 5.4900000000 
H 6.9500000000 8.6700000000 4.5400000000 
H 7.7800000000 8.7800000000 5.8900000000 
O 1.7500000000 0.2800000000 5.5100000000 
H 0.9400000000 0.5700000000 5.0800000000 
H 1.8700000000 9.3200000000 5.0800000000 
O 9.3900000000 8.6700000000 6.4200000000 
H 0.3100000000 8.0400000000 6.3000000000 
H 0.0800000000 9.5000000000 6.6300000000 
O 4.8400000000 5.3400000000 4.2100000000 
H 4.6600000000 6.2900000000 4.1900000000 
H 3.9700000000 4.9200000000 4.0800000000 
O 3.5000000000 6.4800000000 1.3500000000 
H 2.8600000000 5.7500000000 1.1000000000 
H 4.2700000000 6.2400000000 0.7500000000 
O 1.3000000000 3.0700000000 2.7600000000 
H 1.9000000000 2.6100000000 2.2400000000 
H 0.8100000000 2.3600000000 3.1800000000 
O 2.7900000000 4.0600000000 0.0900000000 
H 3.2200000000 3.9200000000 9.0400000000 
H 2.8100000000 3.1200000000 0.5100000000 
O 7.3900000000 2.3600000000 6.3300000000 
H 6.6100000000 2.6500000000 6.9100000000 
H 8.1200000000 2.2500000000 6.9700000000 
O 4.3900000000 1.6300000000 6.4000000000 
H 3.5100000000 1.2700000000 6.4700000000 
H 4.7200000000 1.2300000000 5.5700000000 
O 6.1900000000 2.7900000000 9.4300000000 
H 7.0200000000 2.6800000000 0.0800000000 
H 5.6800000000 1.9800000000 9.6700000000 
O 7.1900000000 3.7900000000 3.9800000000 
H 7.1000000000 3.1600000000 4.7600000000 
H 6.4200000000 4.4400000000 4.0900000000 
O 6.7400000000 1.1000000000 2.5500000000 
H 6.7600000000 2.0800000000 2.6000000000 
H 5.8200000000 1.0200000000 2.8900000000 
O 9.0400000000 8.1900000000 2.8700000000 
H 9.1400000000 7.2300000000 3.1700000000 
H 8.3900000000 8.1100000000 2.1500000000 
O 1.7100000000 6.9400000000 6.1000000000 
H 2.6700000000 7.1200000000 6.3600000000 
H 1.6400000000 6.0500000000 6.4500000000 
O 0.4000000000 4.9700000000 8.9300000000 
H 0.0800000000 4.1100000000 8.6400000000 
H 1.2000000000 4.6700000000 9.4700000000 
O 4.6700000000 7.1200000000 6.8200000000 
H 5.0400000000 6.2900000000 7.1700000000 
H 5.3900000000 7.4700000000 6.2300000000 
O 5.4400000000 5.6200000000 9.1800000000 
H 6.3800000000 5.8600000000 9.2900000000 
H 5.3000000000 4.6300000000 9.3300000000 
O 6.2200000000 0.1800000000 8.1900000000 
H 6.7100000000 9.5500000000 7.5500000000 
H 5.5600000000 0.6300000000 7.6600000000 
O 2.2900000000 4.4900000000 4.8300000000 
H 1.6700000000 5.2200000000 4.6800000000 
H 1.9700000000 3.7700000000 4.2200000000 
O 2.8900000000 8.1700000000 8.6200000000 
H 3.4500000000 7.8500000000 7.8700000000 
H 3.1900000000 7.6800000000 9.3200000000 
O 9.4700000000 1.3100000000 4.0400000000 
H 9.0100000000 0.4000000000 3.9800000000 
H 8.9000000000 2.0600000000 4.3800000000 
O 2.2300000000 8.4400000000 3.1800000000 
H 1.3000000000 8.2800000000 2.9300000000 
H 2.7600000000 7.8500000000 2.5700000000 
O 8.3400000000 6.9600000000 8.4600000000 
H 9.0500000000 6.3400000000 8.7100000000 
H 8.7700000000 7.4600000000 7.7300000000 
O 5.7100000000 7.8100000000 2.9600000000 
H 6.1500000000 8.0200000000 2.0900000000 
H 5.3500000000 6.9600000000 2.7300000000 
O 4.3800000000 0.2500000000 3.7800000000 
H 3.6200000000 9.6000000000 3.8800000000 
H 5.0900000000 9.5200000000 3.7500000000 
O 8.7600000000 0.9600000000 0.8900000000 
H 8.6600000000 0.0600000000 0.6000000000 
H 8.3700000000 0.8700000000 1.8000000000 
O 9.4600000000 2.2900000000 8.4600000000 
H 9.1400000000 1.9100000000 9.2700000000 
H 0.4700000000 1.8800000000 8.4000000000 
O 9.2900000000 5.2500000000 2.7300000000 
H 8.7700000000 4.7100000000 3.3500000000 
H 0.2500000000 4.7600000000 2.6200000000 
O 6.9900000000 8.3600000000 0.4000000000 
H 7.3600000000 7.7800000000 9.5700000000 
H 6.7000000000 9.0700000000 9.7000000000 
O 2.8500000000 1.4300000000 1.4200000000 
H 3.4200000000 1.0200000000 2.1500000000 
H 2.3400000000 0.6700000000 1.1500000000 
O 3.4300000000 4.2500000000 7.1700000000 
H 4.0400000000 3.4900000000 6.9600000000 
H 3.0700000000 4.3900000000 6.2400000000 
O 1.8400000000 0.7100000000 8.4200000000 
H 2.2300000000 9.7300000000 8.7600000000 
H 1.7400000000 0.5400000000 7.4500000000 

