&CONTROL
/
&SYSTEM
   ntyp             = 2
   nat              = 96
   ibrav            = 0
/
&ELECTRONS
/
&IONS
/
&CELL
/

ATOMIC_SPECIES
O 15.999 None
H 1.008 None

K_POINTS gamma

CELL_PARAMETERS angstrom
9.86520000000000 0.00000000000000 0.00000000000000
0.00000000000000 9.86520000000000 0.00000000000000
0.00000000000000 0.00000000000000 9.86520000000000

ATOMIC_POSITIONS angstrom
O 0.5600000000 8.1800000000 5.5500000000 
H 0.9700000000 9.0300000000 5.2600000000 
H 0.7500000000 7.5700000000 4.8100000000 
O 6.5000000000 1.0400000000 7.0100000000 
H 7.2100000000 1.7000000000 7.0400000000 
H 6.5500000000 0.7500000000 7.9000000000 
O 6.3800000000 9.4400000000 9.4600000000 
H 6.8600000000 8.6400000000 9.2200000000 
H 6.7400000000 9.7400000000 0.4200000000 
O 4.3700000000 7.1900000000 5.3500000000 
H 4.8700000000 6.7100000000 6.0700000000 
H 3.6500000000 6.5400000000 5.2100000000 
O 5.2300000000 6.1600000000 2.4800000000 
H 5.6800000000 5.6300000000 3.2300000000 
H 4.4900000000 6.6000000000 3.0200000000 
O 5.3600000000 5.3000000000 7.0900000000 
H 5.2900000000 5.5400000000 8.0500000000 
H 4.8800000000 4.4000000000 6.9400000000 
O 5.5700000000 5.5500000000 9.7400000000 
H 5.3800000000 5.8900000000 0.7700000000 
H 6.5900000000 5.7900000000 9.6600000000 
O 7.3000000000 9.7500000000 2.3100000000 
H 8.0200000000 0.3900000000 2.4300000000 
H 6.7000000000 0.2100000000 3.0600000000 
O 0.6900000000 4.3600000000 9.3500000000 
H 1.4300000000 4.9400000000 9.6100000000 
H 1.1200000000 3.9500000000 8.6100000000 
O 4.6200000000 2.8400000000 3.5500000000 
H 4.7300000000 2.6600000000 2.5900000000 
H 5.4000000000 3.4100000000 3.7000000000 
O 2.6500000000 1.5700000000 9.1700000000 
H 2.6000000000 0.6900000000 8.7500000000 
H 2.3900000000 2.2400000000 8.5500000000 
O 4.3700000000 2.6900000000 6.6800000000 
H 4.4100000000 2.9000000000 5.6700000000 
H 5.0200000000 1.9800000000 6.8200000000 
O 9.4500000000 3.6800000000 3.9800000000 
H 9.1700000000 3.5400000000 3.0200000000 
H 0.0300000000 4.5400000000 3.9200000000 
O 1.7800000000 3.3200000000 6.9100000000 
H 2.0200000000 4.1600000000 6.4400000000 
H 2.4700000000 2.6400000000 6.7500000000 
O 8.0200000000 6.9900000000 9.4900000000 
H 8.3400000000 6.9100000000 0.5900000000 
H 8.7700000000 7.2900000000 8.9300000000 
O 5.0500000000 2.6900000000 0.7900000000 
H 5.5000000000 3.3300000000 0.2500000000 
H 4.7400000000 2.0700000000 0.1600000000 
O 6.4000000000 4.6200000000 4.5500000000 
H 6.4000000000 4.5100000000 5.5100000000 
H 7.3800000000 4.5400000000 4.2800000000 
O 3.2600000000 8.5000000000 9.6400000000 
H 3.0500000000 8.6800000000 0.7200000000 
H 4.1900000000 8.7000000000 9.5400000000 
O 1.5300000000 8.8400000000 2.6800000000 
H 2.3800000000 9.2700000000 3.0500000000 
H 0.9500000000 9.6300000000 2.6700000000 
O 0.4500000000 6.3100000000 3.1200000000 
H 0.7300000000 7.1600000000 2.6700000000 
H 9.3500000000 6.4300000000 3.1200000000 
O 2.4400000000 5.2000000000 4.5300000000 
H 2.4700000000 4.4500000000 3.8900000000 
H 1.7600000000 5.7600000000 4.0800000000 
O 1.5500000000 1.6900000000 4.2600000000 
H 0.9000000000 2.3200000000 3.9300000000 
H 2.4600000000 2.0600000000 4.0800000000 
O 4.0800000000 9.7500000000 2.7800000000 
H 4.6700000000 9.2100000000 3.4200000000 
H 4.2400000000 0.8200000000 3.0700000000 
O 7.5500000000 3.4200000000 8.8500000000 
H 6.9900000000 4.1300000000 8.3900000000 
H 8.2300000000 3.2100000000 8.1800000000 
O 2.4800000000 3.5900000000 1.9600000000 
H 3.1300000000 2.9500000000 1.5800000000 
H 2.4100000000 4.2700000000 1.2700000000 
O 8.8400000000 3.3000000000 1.3000000000 
H 9.4100000000 3.7300000000 0.6000000000 
H 8.0400000000 3.0800000000 0.7000000000 
O 0.6800000000 1.1700000000 1.5200000000 
H 0.2500000000 2.0600000000 1.5700000000 
H 1.2100000000 1.1400000000 0.6400000000 
O 9.0500000000 2.6400000000 6.6300000000 
H 9.0800000000 2.8100000000 5.6700000000 
H 0.1500000000 2.7500000000 6.8800000000 
O 7.7300000000 7.1500000000 2.4900000000 
H 6.6800000000 7.0200000000 2.3500000000 
H 7.7400000000 8.1200000000 2.4200000000 
O 0.7500000000 7.7800000000 8.3200000000 
H 1.7000000000 8.0000000000 8.6000000000 
H 0.9000000000 7.5900000000 7.3600000000 
O 2.5200000000 6.0100000000 0.5200000000 
H 2.0600000000 6.7500000000 0.9800000000 
H 3.2700000000 6.5200000000 0.1200000000 
O 6.1700000000 9.4900000000 4.6100000000 
H 6.2600000000 0.2600000000 5.3700000000 
H 5.6500000000 8.8100000000 5.1200000000 

