&CONTROL
/
&SYSTEM
   ntyp             = 2
   nat              = 96
   ibrav            = 0
/
&ELECTRONS
/
&IONS
/
&CELL
/

ATOMIC_SPECIES
O 15.999 None
H 1.008 None

K_POINTS gamma

CELL_PARAMETERS angstrom
9.86520000000000 0.00000000000000 0.00000000000000
0.00000000000000 9.86520000000000 0.00000000000000
0.00000000000000 0.00000000000000 9.86520000000000

ATOMIC_POSITIONS angstrom
O 1.9500000000 1.4900000000 4.3900000000 
H 1.7000000000 1.7100000000 3.4400000000 
H 1.9800000000 2.3700000000 4.8500000000 
O 9.4400000000 4.3500000000 2.9600000000 
H 9.0000000000 4.5300000000 2.1000000000 
H 0.2900000000 3.8300000000 2.5600000000 
O 1.6600000000 2.9300000000 7.6900000000 
H 1.7400000000 3.6300000000 8.3200000000 
H 0.8900000000 3.2500000000 7.2100000000 
O 5.3900000000 5.5300000000 1.4100000000 
H 5.6900000000 5.1800000000 0.6400000000 
H 5.9100000000 6.3600000000 1.5300000000 
O 3.6900000000 7.6300000000 2.7800000000 
H 4.2000000000 8.4900000000 2.8800000000 
H 4.2900000000 7.0100000000 2.2800000000 
O 6.5000000000 8.1500000000 1.5400000000 
H 6.4200000000 9.0900000000 1.8300000000 
H 7.4400000000 7.9000000000 1.8600000000 
O 8.1500000000 9.2700000000 6.4700000000 
H 7.3500000000 9.8300000000 6.2800000000 
H 7.7900000000 8.3300000000 6.4900000000 
O 8.7200000000 1.4200000000 0.2700000000 
H 8.7800000000 1.3400000000 9.1900000000 
H 8.7500000000 0.4600000000 0.6200000000 
O 8.6000000000 7.3100000000 3.6000000000 
H 8.1300000000 7.1400000000 4.4900000000 
H 8.9800000000 6.4500000000 3.4400000000 
O 7.3700000000 2.0500000000 7.4300000000 
H 6.5200000000 1.6100000000 7.2000000000 
H 7.9600000000 1.8900000000 6.6800000000 
O 8.4800000000 5.3600000000 0.4300000000 
H 9.3400000000 5.5900000000 9.8100000000 
H 7.8700000000 5.1700000000 9.5700000000 
O 6.6800000000 4.5600000000 8.3800000000 
H 5.8500000000 4.7400000000 7.9000000000 
H 6.8800000000 3.6400000000 8.0300000000 
O 0.5900000000 5.7600000000 8.5200000000 
H 0.9300000000 6.5900000000 8.1900000000 
H 9.8200000000 5.6100000000 7.7800000000 
O 0.8100000000 9.8500000000 6.5900000000 
H 0.8500000000 0.3300000000 5.6900000000 
H 9.7500000000 9.5100000000 6.7300000000 
O 7.3400000000 3.4900000000 4.5700000000 
H 6.4700000000 3.2200000000 4.1500000000 
H 7.7600000000 3.9600000000 3.8400000000 
O 5.4300000000 0.5900000000 6.3200000000 
H 4.5400000000 0.5200000000 6.7500000000 
H 5.2400000000 0.8500000000 5.4300000000 
O 6.4100000000 2.1500000000 1.5900000000 
H 7.3000000000 2.1400000000 1.1600000000 
H 5.8600000000 1.9400000000 0.7800000000 
O 5.4900000000 8.4500000000 8.6700000000 
H 5.7900000000 8.4000000000 9.6400000000 
H 5.6100000000 9.4100000000 8.4700000000 
O 2.6200000000 7.4600000000 5.2500000000 
H 2.9000000000 7.2000000000 4.3200000000 
H 2.4800000000 8.3700000000 5.2900000000 
O 9.2600000000 4.2200000000 6.2900000000 
H 8.4800000000 3.8400000000 5.7700000000 
H 9.8400000000 4.4500000000 5.5400000000 
O 9.4000000000 9.0500000000 1.4000000000 
H 0.2500000000 8.7800000000 0.8200000000 
H 9.6800000000 8.7200000000 2.3200000000 
O 3.0500000000 0.4900000000 7.6800000000 
H 2.6700000000 1.4400000000 7.8500000000 
H 2.2100000000 0.1200000000 7.2600000000 
O 4.4100000000 6.3600000000 7.0000000000 
H 3.8700000000 6.8400000000 6.3700000000 
H 4.8400000000 7.0500000000 7.4300000000 
O 4.6100000000 0.6000000000 3.5500000000 
H 3.7800000000 1.0700000000 3.3800000000 
H 5.2300000000 1.2600000000 3.2100000000 
O 2.6000000000 4.5500000000 0.2100000000 
H 3.2900000000 5.1800000000 0.5300000000 
H 1.8600000000 5.1500000000 9.8500000000 
O 1.3600000000 2.4100000000 1.7800000000 
H 0.6700000000 1.9800000000 1.1900000000 
H 1.7000000000 3.0900000000 1.1700000000 
O 1.4600000000 8.8700000000 9.3600000000 
H 2.2100000000 9.4400000000 9.6800000000 
H 1.5000000000 8.9300000000 8.4600000000 
O 7.2300000000 6.4000000000 5.8100000000 
H 7.4200000000 5.6400000000 6.3800000000 
H 6.2600000000 6.4100000000 5.5400000000 
O 4.2100000000 3.5700000000 7.2500000000 
H 4.0300000000 4.5300000000 7.1000000000 
H 3.3100000000 3.2700000000 6.9900000000 
O 4.8900000000 1.5200000000 9.2000000000 
H 4.8900000000 2.2900000000 8.6500000000 
H 4.2600000000 0.9500000000 8.6500000000 
O 4.5600000000 3.7000000000 3.4300000000 
H 4.4400000000 2.8900000000 2.8500000000 
H 4.7900000000 4.4000000000 2.7600000000 
O 2.3700000000 4.3500000000 5.2300000000 
H 2.0400000000 5.3000000000 5.2000000000 
H 3.3200000000 4.2800000000 4.9200000000 

