&CONTROL
/
&SYSTEM
   ntyp             = 2
   nat              = 96
   ibrav            = 0
/
&ELECTRONS
/
&IONS
/
&CELL
/

ATOMIC_SPECIES
O 15.999 None
H 1.008 None

K_POINTS gamma

CELL_PARAMETERS angstrom
9.86520000000000 0.00000000000000 0.00000000000000
0.00000000000000 9.86520000000000 0.00000000000000
0.00000000000000 0.00000000000000 9.86520000000000

ATOMIC_POSITIONS angstrom
O 1.3000000000 9.6700000000 5.6300000000 
H 0.9700000000 9.2300000000 6.5000000000 
H 0.7700000000 0.6500000000 5.7900000000 
O 3.2000000000 8.0400000000 3.4700000000 
H 3.1200000000 8.4000000000 4.4200000000 
H 2.2000000000 8.0300000000 3.2700000000 
O 6.1900000000 0.6400000000 5.8800000000 
H 6.4700000000 0.5200000000 6.7600000000 
H 5.3200000000 1.0700000000 5.9600000000 
O 6.4700000000 0.6600000000 8.6600000000 
H 7.2300000000 0.5100000000 9.2300000000 
H 5.7000000000 0.7800000000 9.3000000000 
O 2.7200000000 4.5900000000 3.8800000000 
H 3.1500000000 5.3100000000 4.3400000000 
H 1.8500000000 4.6000000000 4.2900000000 
O 5.8100000000 4.3600000000 7.3500000000 
H 6.2800000000 4.2200000000 6.4800000000 
H 5.9400000000 5.3300000000 7.5100000000 
O 3.4400000000 1.4400000000 6.3500000000 
H 2.6800000000 0.8400000000 6.2400000000 
H 3.0800000000 2.2600000000 6.8300000000 
O 7.8800000000 0.4700000000 3.5700000000 
H 7.9300000000 9.4600000000 3.9600000000 
H 7.3200000000 0.9200000000 4.2200000000 
O 3.2200000000 3.6200000000 7.9400000000 
H 3.0100000000 4.4900000000 8.5000000000 
H 4.1100000000 3.8300000000 7.6400000000 
O 0.3500000000 7.7400000000 2.4800000000 
H 9.6200000000 7.8200000000 1.7600000000 
H 9.6800000000 7.7600000000 3.3100000000 
O 7.0900000000 6.4800000000 0.6200000000 
H 6.5600000000 7.0300000000 1.2300000000 
H 6.7400000000 5.5600000000 0.6900000000 
O 9.7000000000 5.4200000000 7.8900000000 
H 0.7400000000 5.2000000000 8.2500000000 
H 9.1400000000 4.9500000000 8.5400000000 
O 8.5400000000 3.5400000000 2.4500000000 
H 8.9200000000 3.8200000000 1.6100000000 
H 9.0900000000 2.7500000000 2.6800000000 
O 0.0800000000 8.2600000000 7.7900000000 
H 0.6800000000 8.3300000000 8.5100000000 
H 9.4600000000 7.3900000000 8.0500000000 
O 4.1900000000 1.2200000000 0.7300000000 
H 3.4800000000 1.1900000000 0.0900000000 
H 3.8300000000 1.3200000000 1.6400000000 
O 3.3600000000 1.7500000000 3.3100000000 
H 3.6100000000 1.4000000000 4.1700000000 
H 3.2100000000 2.7000000000 3.4800000000 
O 5.8100000000 3.5200000000 1.1800000000 
H 5.4500000000 2.5900000000 1.2100000000 
H 6.5900000000 3.5900000000 1.7900000000 
O 1.5500000000 1.6200000000 9.3100000000 
H 0.6900000000 1.9200000000 9.0700000000 
H 2.2200000000 2.3300000000 9.0200000000 
O 3.6200000000 7.2700000000 6.5600000000 
H 2.8900000000 6.8700000000 7.0700000000 
H 4.4400000000 7.0700000000 7.0400000000 
O 9.1100000000 7.3300000000 5.0200000000 
H 8.1600000000 7.2200000000 5.1500000000 
H 9.3300000000 7.6700000000 5.8900000000 
O 8.2700000000 3.5800000000 9.5000000000 
H 8.2100000000 2.5800000000 9.5900000000 
H 7.4200000000 3.8500000000 8.9900000000 
O 0.7300000000 1.5000000000 2.5700000000 
H 0.4300000000 1.2600000000 3.5400000000 
H 1.7100000000 1.6300000000 2.6200000000 
O 0.4500000000 4.8100000000 5.4900000000 
H 0.0300000000 5.1100000000 6.3500000000 
H 0.0100000000 5.5600000000 4.9800000000 
O 6.3500000000 6.9900000000 7.7900000000 
H 6.0400000000 7.9000000000 8.0200000000 
H 6.5900000000 6.6600000000 8.6400000000 
O 3.7600000000 5.3900000000 1.6500000000 
H 3.2400000000 5.3400000000 2.4800000000 
H 4.4500000000 4.6600000000 1.8100000000 
O 6.3100000000 7.6500000000 4.4600000000 
H 6.0500000000 8.0700000000 3.6300000000 
H 5.7200000000 8.0900000000 5.1300000000 
O 2.3500000000 5.9600000000 9.2500000000 
H 2.3800000000 6.9200000000 9.4000000000 
H 2.8000000000 5.6200000000 0.1400000000 
O 7.0900000000 4.5500000000 4.4600000000 
H 6.7200000000 5.3600000000 4.2000000000 
H 7.6200000000 4.2800000000 3.6700000000 
O 8.4200000000 1.0800000000 0.6000000000 
H 7.9700000000 0.8400000000 1.5100000000 
H 9.3700000000 1.1000000000 0.8200000000 
O 1.7100000000 8.6400000000 0.3500000000 
H 1.5300000000 8.3300000000 1.2700000000 
H 1.6400000000 9.6200000000 0.3400000000 
O 9.5600000000 2.2500000000 5.9200000000 
H 0.1100000000 3.1600000000 5.7800000000 
H 8.6000000000 2.4500000000 6.1900000000 
O 5.3500000000 8.3200000000 1.8400000000 
H 4.7600000000 9.0000000000 1.4000000000 
H 4.6100000000 7.8100000000 2.2500000000 

