&CONTROL
/
&SYSTEM
   ntyp             = 2
   nat              = 96
   ibrav            = 0
/
&ELECTRONS
/
&IONS
/
&CELL
/

ATOMIC_SPECIES
O 15.999 None
H 1.008 None

K_POINTS gamma

CELL_PARAMETERS angstrom
9.86520000000000 0.00000000000000 0.00000000000000
0.00000000000000 9.86520000000000 0.00000000000000
0.00000000000000 0.00000000000000 9.86520000000000

ATOMIC_POSITIONS angstrom
O 9.5100000000 6.1800000000 5.4300000000 
H 0.3500000000 5.7700000000 6.0200000000 
H 9.0900000000 5.3800000000 5.0000000000 
O 3.3900000000 2.9200000000 2.5300000000 
H 3.5400000000 3.8200000000 2.8900000000 
H 2.6200000000 2.9700000000 1.8600000000 
O 8.4500000000 3.4900000000 4.5100000000 
H 8.6900000000 2.8900000000 3.8000000000 
H 7.4700000000 3.5900000000 4.4900000000 
O 2.1300000000 4.3000000000 9.3500000000 
H 1.7200000000 3.4300000000 9.4600000000 
H 3.0600000000 3.9900000000 9.5000000000 
O 3.0300000000 7.4400000000 5.9700000000 
H 2.4800000000 6.6500000000 6.2100000000 
H 2.4100000000 7.7900000000 5.2500000000 
O 6.1300000000 9.3600000000 4.3300000000 
H 5.4200000000 0.0100000000 3.8400000000 
H 6.0400000000 0.0100000000 5.1600000000 
O 4.6800000000 3.3400000000 9.4600000000 
H 5.2200000000 3.6500000000 8.7300000000 
H 4.8600000000 2.3500000000 9.4300000000 
O 0.6700000000 2.1900000000 0.6100000000 
H 9.7300000000 1.9700000000 1.0700000000 
H 0.8900000000 1.3000000000 0.4100000000 
O 0.7300000000 9.1600000000 1.6300000000 
H 9.7300000000 8.9800000000 2.0300000000 
H 0.8400000000 8.3500000000 1.0900000000 
O 9.3200000000 8.7500000000 7.5200000000 
H 9.4700000000 8.0600000000 6.8300000000 
H 9.2200000000 8.1600000000 8.2700000000 
O 3.3600000000 2.3100000000 5.4000000000 
H 2.7200000000 1.8800000000 4.8400000000 
H 2.7200000000 2.7300000000 6.0100000000 
O 0.4600000000 3.0500000000 6.4300000000 
H 9.7700000000 2.5000000000 7.0100000000 
H 9.7800000000 3.1700000000 5.6400000000 
O 5.7500000000 7.6300000000 6.4200000000 
H 4.7900000000 7.4700000000 6.2600000000 
H 5.9400000000 8.0300000000 5.5200000000 
O 6.2700000000 4.9600000000 7.3100000000 
H 6.2800000000 6.0000000000 7.1300000000 
H 5.8300000000 4.5200000000 6.5400000000 
O 8.1900000000 8.6000000000 2.5700000000 
H 7.5800000000 7.8700000000 2.2700000000 
H 7.6500000000 8.8800000000 3.3700000000 
O 1.1000000000 6.6000000000 0.4900000000 
H 1.5700000000 5.8300000000 0.0100000000 
H 1.9700000000 6.8300000000 0.9200000000 
O 3.6600000000 0.0400000000 2.2300000000 
H 2.6900000000 9.7900000000 2.2500000000 
H 3.7700000000 1.0600000000 2.1700000000 
O 1.6400000000 5.3800000000 7.0300000000 
H 1.9600000000 5.2200000000 7.9600000000 
H 1.2400000000 4.4800000000 6.8900000000 
O 2.1700000000 9.0800000000 8.0900000000 
H 2.5500000000 8.5500000000 7.3100000000 
H 1.2200000000 9.0500000000 7.9200000000 
O 8.1400000000 1.5200000000 2.3700000000 
H 7.3300000000 2.0900000000 2.3300000000 
H 7.8900000000 0.5900000000 2.3100000000 
O 3.6400000000 7.2500000000 1.5700000000 
H 3.8000000000 8.1700000000 1.9200000000 
H 4.2500000000 7.3300000000 0.8000000000 
O 5.8200000000 3.6400000000 4.6000000000 
H 5.0200000000 3.1100000000 4.6900000000 
H 5.8000000000 3.7300000000 3.6500000000 
O 1.2100000000 8.0300000000 4.2700000000 
H 0.4700000000 7.5900000000 4.7800000000 
H 0.8100000000 8.5700000000 3.5600000000 
O 7.8600000000 3.7600000000 9.1000000000 
H 8.1200000000 2.8600000000 8.7300000000 
H 7.7100000000 4.3200000000 8.3400000000 
O 6.5100000000 3.7600000000 1.5900000000 
H 7.0900000000 3.7600000000 0.7500000000 
H 5.6300000000 3.8000000000 1.1300000000 
O 6.4500000000 6.4500000000 2.2000000000 
H 5.4800000000 6.4100000000 2.3100000000 
H 6.8100000000 5.5600000000 2.1700000000 
O 8.2200000000 1.5200000000 7.3900000000 
H 7.3100000000 1.4300000000 7.1200000000 
H 8.6500000000 0.6600000000 7.0800000000 
O 4.5300000000 0.4400000000 8.9100000000 
H 4.9100000000 9.5800000000 9.4600000000 
H 3.6100000000 0.1200000000 8.7900000000 
O 3.3700000000 5.4500000000 3.4600000000 
H 3.1800000000 6.2000000000 2.8400000000 
H 3.2900000000 5.8600000000 4.3800000000 
O 8.4900000000 6.5400000000 9.2700000000 
H 7.9800000000 5.8200000000 9.5700000000 
H 9.3600000000 6.3500000000 9.6800000000 
O 5.5700000000 1.1800000000 6.5000000000 
H 4.6700000000 1.5500000000 6.3200000000 
H 5.3700000000 0.9500000000 7.4200000000 
O 5.4100000000 7.6800000000 9.1800000000 
H 6.3300000000 7.6800000000 9.5400000000 
H 5.4700000000 7.8800000000 8.1700000000 

