&CONTROL
/
&SYSTEM
   ntyp             = 2
   nat              = 96
   ibrav            = 0
/
&ELECTRONS
/
&IONS
/
&CELL
/

ATOMIC_SPECIES
O 15.999 None
H 1.008 None

K_POINTS gamma

CELL_PARAMETERS angstrom
9.86520000000000 0.00000000000000 0.00000000000000
0.00000000000000 9.86520000000000 0.00000000000000
0.00000000000000 0.00000000000000 9.86520000000000

ATOMIC_POSITIONS angstrom
O 7.2100000000 3.3200000000 7.4300000000 
H 7.7800000000 2.6700000000 7.0300000000 
H 7.0600000000 3.9300000000 6.7000000000 
O 2.3200000000 4.5900000000 8.1600000000 
H 2.2500000000 3.9100000000 8.8900000000 
H 1.7800000000 4.2900000000 7.4500000000 
O 1.1900000000 4.0300000000 3.2800000000 
H 0.3900000000 4.3800000000 2.8100000000 
H 1.0500000000 3.0100000000 3.2400000000 
O 2.6100000000 6.4700000000 2.9800000000 
H 2.2900000000 5.5300000000 3.1500000000 
H 1.9600000000 6.8500000000 2.2700000000 
O 0.6800000000 9.0900000000 6.1000000000 
H 0.2400000000 8.8000000000 5.2900000000 
H 1.4200000000 9.5500000000 5.6900000000 
O 5.5500000000 8.5200000000 3.1000000000 
H 6.0700000000 8.6700000000 3.9000000000 
H 6.0700000000 7.8300000000 2.6100000000 
O 2.1200000000 2.6400000000 0.4800000000 
H 2.1900000000 3.1200000000 1.3600000000 
H 2.9200000000 2.0700000000 0.5100000000 
O 1.1800000000 1.1800000000 3.3100000000 
H 0.3600000000 0.7300000000 3.3300000000 
H 1.9100000000 0.5300000000 3.3500000000 
O 1.5500000000 8.0200000000 8.4400000000 
H 2.3400000000 7.4200000000 8.5200000000 
H 1.5300000000 8.1600000000 7.4500000000 
O 0.2000000000 0.4500000000 9.4000000000 
H 0.8500000000 0.9000000000 0.2100000000 
H 0.7900000000 9.6500000000 9.0100000000 
O 0.7300000000 4.0000000000 6.0300000000 
H 1.0100000000 3.9400000000 5.0700000000 
H 0.2100000000 3.2500000000 6.2100000000 
O 9.2900000000 1.6200000000 7.0600000000 
H 9.5200000000 1.2200000000 7.9400000000 
H 9.3600000000 0.8200000000 6.5100000000 
O 4.6600000000 6.0900000000 7.6900000000 
H 3.8000000000 5.5400000000 7.8400000000 
H 5.0900000000 6.2800000000 8.5500000000 
O 3.1000000000 1.1900000000 7.4500000000 
H 3.6400000000 0.4000000000 7.1700000000 
H 2.9800000000 1.7300000000 6.6700000000 
O 4.8000000000 8.5000000000 6.1600000000 
H 4.6200000000 7.6500000000 6.5800000000 
H 5.8000000000 8.4800000000 5.9700000000 
O 0.6700000000 7.3200000000 1.1900000000 
H 9.7700000000 6.7000000000 0.9500000000 
H 1.0200000000 7.6500000000 0.2700000000 
O 7.7200000000 2.5400000000 0.2800000000 
H 7.4800000000 2.5700000000 9.1800000000 
H 6.9800000000 2.9800000000 0.6900000000 
O 9.3400000000 6.2000000000 6.7900000000 
H 9.6500000000 5.2200000000 6.7000000000 
H 0.2600000000 6.7200000000 6.4600000000 
O 4.3400000000 0.8000000000 0.1600000000 
H 3.9100000000 0.8200000000 9.1300000000 
H 4.8400000000 9.7900000000 0.0200000000 
O 8.1000000000 0.6600000000 2.3300000000 
H 8.1200000000 1.2100000000 1.5400000000 
H 7.2400000000 0.9900000000 2.7900000000 
O 5.0500000000 6.2600000000 1.3100000000 
H 4.9800000000 5.3100000000 1.2000000000 
H 4.4600000000 6.5100000000 2.0400000000 
O 7.0500000000 4.5200000000 4.9900000000 
H 7.1500000000 4.4700000000 4.0700000000 
H 6.6400000000 5.4000000000 5.1100000000 
O 3.2100000000 9.4800000000 4.1800000000 
H 3.3300000000 8.6000000000 3.7200000000 
H 3.8900000000 9.3400000000 4.8600000000 
O 9.1800000000 5.0800000000 9.5300000000 
H 9.0200000000 4.1900000000 9.2200000000 
H 9.2700000000 5.3800000000 8.5900000000 
O 8.5300000000 4.5300000000 2.2200000000 
H 8.5000000000 5.1400000000 1.4000000000 
H 8.4100000000 3.7000000000 1.7300000000 
O 9.6200000000 8.5400000000 3.4600000000 
H 0.2300000000 8.1500000000 2.7000000000 
H 8.8800000000 8.9900000000 2.9600000000 
O 5.3500000000 1.4100000000 3.2100000000 
H 4.8800000000 1.6100000000 4.0600000000 
H 5.0200000000 0.5100000000 2.9400000000 
O 8.1600000000 8.0900000000 9.2100000000 
H 8.9000000000 7.8000000000 8.7100000000 
H 8.4000000000 8.9900000000 9.3500000000 
O 4.5700000000 3.1100000000 5.4500000000 
H 4.4100000000 3.2800000000 6.3600000000 
H 5.3400000000 3.6300000000 5.2000000000 
O 7.4200000000 7.2500000000 5.1000000000 
H 7.8600000000 6.8900000000 5.9300000000 
H 8.2100000000 7.3200000000 4.5300000000 
O 5.1800000000 3.3700000000 1.3300000000 
H 4.8800000000 2.5400000000 0.9500000000 
H 5.0800000000 3.1400000000 2.2400000000 
O 5.4800000000 8.2600000000 9.3600000000 
H 6.4700000000 8.1900000000 9.2800000000 
H 5.3300000000 7.6700000000 0.2600000000 

