&CONTROL
/
&SYSTEM
   ntyp             = 2
   nat              = 96
   ibrav            = 0
/
&ELECTRONS
/
&IONS
/
&CELL
/

ATOMIC_SPECIES
O 15.999 None
H 1.008 None

K_POINTS gamma

CELL_PARAMETERS angstrom
9.86520000000000 0.00000000000000 0.00000000000000
0.00000000000000 9.86520000000000 0.00000000000000
0.00000000000000 0.00000000000000 9.86520000000000

ATOMIC_POSITIONS angstrom
O 6.0100000000 7.1900000000 2.3000000000 
H 6.9300000000 7.6400000000 2.1900000000 
H 5.8800000000 7.5400000000 3.2300000000 
O 5.4800000000 1.4300000000 8.3800000000 
H 5.8200000000 1.0700000000 7.5800000000 
H 6.2200000000 1.2500000000 8.9900000000 
O 7.5700000000 1.0700000000 0.3600000000 
H 8.1200000000 1.7500000000 0.8600000000 
H 8.0000000000 0.1800000000 0.4000000000 
O 3.4700000000 5.8300000000 1.7300000000 
H 4.3900000000 6.2900000000 1.6600000000 
H 3.0100000000 6.5800000000 2.1400000000 
O 8.3800000000 5.2100000000 2.2600000000 
H 8.3300000000 6.1600000000 2.4800000000 
H 8.1400000000 5.2000000000 1.2700000000 
O 3.1900000000 5.4300000000 5.7700000000 
H 3.8300000000 5.4600000000 6.5000000000 
H 2.4100000000 5.0600000000 6.2700000000 
O 6.1900000000 7.3700000000 9.3200000000 
H 6.2300000000 7.0500000000 0.4300000000 
H 7.0800000000 7.4100000000 8.9700000000 
O 7.4300000000 0.2200000000 6.7800000000 
H 8.1700000000 9.6600000000 7.2400000000 
H 7.6400000000 1.1800000000 6.9400000000 
O 1.9900000000 7.4100000000 8.4900000000 
H 2.4100000000 8.1700000000 8.8700000000 
H 1.8300000000 6.7400000000 9.2100000000 
O 2.6300000000 8.0600000000 5.3900000000 
H 2.8900000000 7.1100000000 5.1300000000 
H 2.6600000000 8.0000000000 6.3900000000 
O 8.4800000000 8.4000000000 1.7700000000 
H 8.6000000000 9.0600000000 2.5200000000 
H 9.3500000000 8.4400000000 1.3300000000 
O 3.6100000000 9.6800000000 9.4400000000 
H 4.2200000000 8.9900000000 9.8000000000 
H 4.2600000000 0.5000000000 9.1800000000 
O 1.6000000000 4.5900000000 0.2200000000 
H 2.1700000000 4.9600000000 0.8700000000 
H 2.1600000000 4.3000000000 9.3500000000 
O 1.3900000000 2.7900000000 6.9300000000 
H 2.1600000000 2.8600000000 7.5200000000 
H 1.8200000000 2.1000000000 6.3200000000 
O 0.8400000000 9.5400000000 0.8100000000 
H 0.9300000000 0.6200000000 1.1200000000 
H 1.7200000000 9.2300000000 1.0000000000 
O 9.7100000000 2.6500000000 1.8100000000 
H 0.6600000000 3.0500000000 1.5500000000 
H 9.1500000000 3.3700000000 2.1900000000 
O 5.5600000000 1.9400000000 3.7900000000 
H 5.9100000000 2.7900000000 4.2800000000 
H 5.1200000000 2.2500000000 2.9800000000 
O 3.0000000000 8.3600000000 2.5200000000 
H 3.0300000000 9.3700000000 2.6000000000 
H 2.6400000000 8.1000000000 3.3600000000 
O 3.0600000000 1.1800000000 5.5400000000 
H 2.9800000000 0.2700000000 5.2400000000 
H 3.3500000000 1.4400000000 4.6900000000 
O 2.3600000000 1.3800000000 2.4200000000 
H 2.1200000000 2.0000000000 3.1500000000 
H 3.0800000000 1.8900000000 1.9400000000 
O 7.3600000000 3.8100000000 4.6500000000 
H 7.9000000000 4.0600000000 3.8700000000 
H 7.3200000000 4.7000000000 5.1300000000 
O 4.7000000000 2.6200000000 1.1600000000 
H 5.1800000000 2.1500000000 0.4600000000 
H 4.2200000000 3.2100000000 0.5600000000 
O 2.8300000000 3.6900000000 3.5900000000 
H 3.0700000000 4.2300000000 2.8100000000 
H 3.0000000000 4.3300000000 4.3600000000 
O 8.2700000000 2.9100000000 7.2100000000 
H 7.8900000000 3.2100000000 6.3300000000 
H 9.2100000000 2.7100000000 7.0500000000 
O 6.0400000000 9.3000000000 4.5400000000 
H 5.9000000000 0.3800000000 4.2300000000 
H 6.3100000000 9.5100000000 5.4500000000 
O 3.7500000000 3.6500000000 8.3300000000 
H 4.2800000000 2.8800000000 8.0300000000 
H 4.4000000000 4.4000000000 8.1200000000 
O 9.4300000000 8.9300000000 8.4200000000 
H 9.8500000000 9.3100000000 9.1700000000 
H 0.2000000000 8.2100000000 8.2200000000 
O 9.4500000000 0.6200000000 3.7400000000 
H 8.5800000000 1.1000000000 3.7100000000 
H 0.1300000000 1.2300000000 3.1600000000 
O 9.3900000000 8.0500000000 4.7200000000 
H 9.4800000000 9.0400000000 4.5200000000 
H 0.3000000000 7.7100000000 5.1900000000 
O 6.9900000000 6.5300000000 5.4700000000 
H 7.8400000000 7.0200000000 5.3500000000 
H 6.2900000000 7.2700000000 5.3500000000 
O 8.5400000000 5.0500000000 8.9500000000 
H 9.4200000000 4.9000000000 9.4100000000 
H 8.3300000000 4.2200000000 8.4500000000 
O 5.4200000000 5.5100000000 7.4300000000 
H 6.0700000000 5.6900000000 6.6900000000 
H 5.6100000000 6.1900000000 8.1700000000 

