&CONTROL
/
&SYSTEM
   ntyp             = 2
   nat              = 96
   ibrav            = 0
/
&ELECTRONS
/
&IONS
/
&CELL
/

ATOMIC_SPECIES
O 15.999 None
H 1.008 None

K_POINTS gamma

CELL_PARAMETERS angstrom
9.86520000000000 0.00000000000000 0.00000000000000
0.00000000000000 9.86520000000000 0.00000000000000
0.00000000000000 0.00000000000000 9.86520000000000

ATOMIC_POSITIONS angstrom
O 2.4200000000 5.5300000000 4.8900000000 
H 2.2700000000 6.4000000000 4.4800000000 
H 2.9800000000 5.1100000000 4.2200000000 
O 7.7500000000 9.5000000000 1.3300000000 
H 6.8600000000 0.0800000000 1.2200000000 
H 7.4300000000 8.5500000000 1.4400000000 
O 2.4400000000 2.4200000000 3.4200000000 
H 2.7300000000 2.3700000000 4.3900000000 
H 2.5400000000 1.4200000000 3.2200000000 
O 2.9300000000 4.8400000000 7.5200000000 
H 3.8300000000 4.4300000000 7.3400000000 
H 2.5900000000 5.1300000000 6.7000000000 
O 5.2000000000 3.1900000000 1.0800000000 
H 6.1800000000 3.1300000000 0.8300000000 
H 5.0000000000 2.2500000000 0.8900000000 
O 2.2600000000 7.4500000000 1.4900000000 
H 1.5500000000 6.8700000000 1.7400000000 
H 2.9700000000 6.8300000000 1.0800000000 
O 3.7400000000 1.5100000000 6.4800000000 
H 4.5600000000 1.0300000000 6.8000000000 
H 4.0000000000 2.4500000000 6.7400000000 
O 1.3400000000 9.4400000000 6.6600000000 
H 1.2400000000 9.0600000000 7.5400000000 
H 1.9100000000 0.3200000000 6.8600000000 
O 2.3700000000 9.5400000000 3.4300000000 
H 2.5000000000 8.7900000000 2.7600000000 
H 1.4200000000 9.2400000000 3.7200000000 
O 1.5900000000 2.5000000000 0.6900000000 
H 0.7100000000 2.2900000000 1.0900000000 
H 2.1800000000 2.7300000000 1.4300000000 
O 3.8300000000 5.6200000000 0.3900000000 
H 4.3200000000 4.7800000000 0.6500000000 
H 3.8100000000 5.4800000000 9.2700000000 
O 9.5500000000 6.2800000000 2.4400000000 
H 9.6700000000 5.4300000000 2.9100000000 
H 8.7700000000 6.5900000000 3.0100000000 
O 2.1800000000 9.4200000000 9.3800000000 
H 2.2100000000 8.7400000000 0.1500000000 
H 1.2500000000 9.7100000000 9.3900000000 
O 0.0100000000 3.7800000000 3.6100000000 
H 0.9200000000 3.7600000000 3.9100000000 
H 9.7600000000 2.8500000000 3.3300000000 
O 5.6300000000 6.6600000000 6.0000000000 
H 5.2100000000 6.1600000000 5.2300000000 
H 4.9600000000 7.4300000000 5.9700000000 
O 7.3900000000 4.1000000000 4.0200000000 
H 6.9400000000 3.2100000000 4.0700000000 
H 8.3000000000 3.8900000000 3.7400000000 
O 9.2100000000 1.4600000000 2.7800000000 
H 9.3700000000 0.7100000000 3.3800000000 
H 8.8000000000 0.8700000000 2.1400000000 
O 6.2700000000 1.7500000000 4.5800000000 
H 7.0000000000 1.0200000000 4.4900000000 
H 5.4900000000 1.2500000000 4.9800000000 
O 5.0100000000 5.1000000000 3.4000000000 
H 5.9400000000 4.7900000000 3.6600000000 
H 4.9100000000 4.4400000000 2.6400000000 
O 8.4900000000 2.4500000000 7.1700000000 
H 9.1500000000 3.1800000000 7.4600000000 
H 9.1700000000 1.8300000000 6.7800000000 
O 7.7800000000 3.5500000000 0.4600000000 
H 8.4000000000 3.6900000000 9.5800000000 
H 7.8800000000 4.2700000000 1.0900000000 
O 9.5500000000 9.2500000000 4.5000000000 
H 8.8000000000 8.6700000000 4.6600000000 
H 0.2200000000 9.2000000000 5.3200000000 
O 0.6200000000 3.7300000000 8.4300000000 
H 1.5400000000 3.8900000000 8.2000000000 
H 0.9200000000 3.0500000000 9.0800000000 
O 8.0700000000 7.6400000000 7.2800000000 
H 8.3200000000 7.0000000000 7.8700000000 
H 7.2500000000 7.1900000000 6.9200000000 
O 6.4700000000 7.1100000000 0.7100000000 
H 7.2600000000 6.5800000000 0.3500000000 
H 5.5700000000 6.8400000000 0.3400000000 
O 7.2900000000 7.2500000000 3.6500000000 
H 6.6500000000 7.1100000000 2.9300000000 
H 6.7400000000 7.2300000000 4.4500000000 
O 4.9800000000 0.3600000000 0.4200000000 
H 5.0200000000 0.1600000000 9.3300000000 
H 4.0300000000 0.1000000000 0.5400000000 
O 3.9400000000 8.5100000000 5.2800000000 
H 3.2900000000 8.8300000000 5.9600000000 
H 3.4800000000 8.7000000000 4.4600000000 
O 9.1700000000 6.0600000000 9.2200000000 
H 9.6900000000 5.4500000000 8.7800000000 
H 9.7800000000 6.2100000000 0.1000000000 
O 5.4600000000 3.6600000000 6.6500000000 
H 6.3100000000 3.1900000000 6.5600000000 
H 5.8000000000 4.6100000000 6.5300000000 
O 6.2800000000 0.5800000000 7.4500000000 
H 6.6900000000 9.6100000000 7.7300000000 
H 7.0700000000 1.2400000000 7.2800000000 
O 9.3700000000 9.4700000000 9.0100000000 
H 8.9600000000 8.8200000000 8.3400000000 
H 8.7300000000 9.4200000000 9.7600000000 

