&CONTROL
/
&SYSTEM
   ntyp             = 2
   nat              = 96
   ibrav            = 0
/
&ELECTRONS
/
&IONS
/
&CELL
/

ATOMIC_SPECIES
O 15.999 None
H 1.008 None

K_POINTS gamma

CELL_PARAMETERS angstrom
9.86520000000000 0.00000000000000 0.00000000000000
0.00000000000000 9.86520000000000 0.00000000000000
0.00000000000000 0.00000000000000 9.86520000000000

ATOMIC_POSITIONS angstrom
O 4.8900000000 4.4300000000 6.3400000000 
H 4.7800000000 5.2000000000 5.7200000000 
H 5.8800000000 4.2000000000 6.2500000000 
O 1.6800000000 3.3000000000 4.8600000000 
H 1.2300000000 4.1400000000 4.6900000000 
H 1.9700000000 3.1100000000 3.9300000000 
O 5.2300000000 6.2900000000 4.2700000000 
H 4.8200000000 7.0500000000 4.7400000000 
H 5.2500000000 6.6200000000 3.3600000000 
O 9.0900000000 9.2700000000 0.5600000000 
H 9.3000000000 0.4200000000 0.4400000000 
H 9.7900000000 8.7800000000 0.0600000000 
O 8.3500000000 3.2700000000 3.5200000000 
H 8.6400000000 2.9000000000 2.6100000000 
H 8.9500000000 4.0600000000 3.4900000000 
O 5.0700000000 3.7700000000 3.1100000000 
H 5.5700000000 3.7900000000 2.2900000000 
H 5.2200000000 4.7100000000 3.4500000000 
O 8.7100000000 9.5100000000 7.4800000000 
H 9.6400000000 9.6600000000 7.7800000000 
H 8.8400000000 0.0400000000 6.5900000000 
O 8.5100000000 7.5700000000 5.5400000000 
H 8.5300000000 8.2500000000 4.7900000000 
H 8.7900000000 8.0500000000 6.3300000000 
O 9.5900000000 1.2500000000 5.5100000000 
H 8.7000000000 1.7600000000 5.3000000000 
H 0.4200000000 1.9300000000 5.4800000000 
O 1.6300000000 1.5700000000 9.2500000000 
H 1.9700000000 2.2500000000 8.6300000000 
H 2.3000000000 0.8800000000 9.1100000000 
O 3.6400000000 0.0900000000 8.2500000000 
H 4.5600000000 0.0100000000 8.6200000000 
H 3.8500000000 0.5700000000 7.4000000000 
O 0.7600000000 5.2900000000 8.8300000000 
H 0.9600000000 6.1800000000 8.5700000000 
H 1.3600000000 4.6800000000 8.3500000000 
O 8.4000000000 8.4600000000 3.0700000000 
H 7.5100000000 8.0900000000 2.8400000000 
H 8.8500000000 8.4400000000 2.2300000000 
O 1.6600000000 8.2600000000 8.8400000000 
H 2.3800000000 8.9400000000 8.8200000000 
H 1.7500000000 7.7300000000 8.0100000000 
O 6.4500000000 9.5000000000 9.2700000000 
H 6.8700000000 8.8400000000 8.7600000000 
H 7.2700000000 0.1700000000 9.5700000000 
O 2.6100000000 3.5200000000 7.5800000000 
H 2.5000000000 3.3200000000 6.6100000000 
H 3.4900000000 3.8900000000 7.5600000000 
O 6.8600000000 0.9500000000 4.1200000000 
H 7.4500000000 1.6500000000 3.7800000000 
H 7.1300000000 0.1500000000 3.6600000000 
O 7.3500000000 2.2100000000 8.2700000000 
H 7.5200000000 1.3000000000 7.8300000000 
H 7.5600000000 2.8100000000 7.5400000000 
O 0.2000000000 5.7200000000 4.1400000000 
H 9.3600000000 6.3100000000 4.5500000000 
H 0.0800000000 5.9600000000 3.1300000000 
O 3.3200000000 9.2500000000 1.3900000000 
H 2.6700000000 9.8300000000 1.8800000000 
H 2.6100000000 8.7100000000 0.9600000000 
O 1.5400000000 6.9400000000 6.3300000000 
H 1.0300000000 6.2500000000 5.7700000000 
H 2.1100000000 7.4900000000 5.6700000000 
O 4.7900000000 2.6800000000 0.2600000000 
H 5.1500000000 3.4400000000 9.6900000000 
H 5.1900000000 1.9700000000 9.6800000000 
O 4.6300000000 1.5400000000 5.8600000000 
H 5.2000000000 1.2500000000 5.1000000000 
H 4.7700000000 2.5100000000 5.7700000000 
O 6.7800000000 6.2500000000 8.3400000000 
H 6.1600000000 5.5800000000 7.9000000000 
H 7.3100000000 6.4500000000 7.5800000000 
O 9.3400000000 6.0700000000 1.4700000000 
H 8.5300000000 5.5700000000 1.1700000000 
H 0.1700000000 6.1000000000 0.7500000000 
O 9.3500000000 2.8300000000 0.9300000000 
H 0.3000000000 3.3100000000 0.5600000000 
H 8.7100000000 2.9000000000 0.1300000000 
O 3.4800000000 8.8200000000 5.1800000000 
H 3.8500000000 9.5500000000 5.7400000000 
H 2.9000000000 9.2000000000 4.4900000000 
O 1.6700000000 0.3100000000 3.4500000000 
H 0.8500000000 0.4500000000 3.9400000000 
H 2.1700000000 1.1300000000 3.2500000000 
O 7.7000000000 4.2600000000 6.0500000000 
H 7.9600000000 5.1900000000 5.7700000000 
H 7.7700000000 3.7100000000 5.2200000000 
O 6.4800000000 5.6300000000 1.0700000000 
H 6.9100000000 5.6700000000 0.1600000000 
H 6.1700000000 6.5500000000 1.1800000000 
O 2.6300000000 2.5500000000 2.4600000000 
H 3.5700000000 2.9000000000 2.6200000000 
H 2.6000000000 2.3200000000 1.5500000000 
O 5.6900000000 8.1200000000 1.7300000000 
H 6.0500000000 8.4200000000 0.8500000000 
H 4.8700000000 8.7000000000 1.9300000000 

