&CONTROL
/
&SYSTEM
   ntyp             = 2
   nat              = 96
   ibrav            = 0
/
&ELECTRONS
/
&IONS
/
&CELL
/

ATOMIC_SPECIES
O 15.999 None
H 1.008 None

K_POINTS gamma

CELL_PARAMETERS angstrom
9.86520000000000 0.00000000000000 0.00000000000000
0.00000000000000 9.86520000000000 0.00000000000000
0.00000000000000 0.00000000000000 9.86520000000000

ATOMIC_POSITIONS angstrom
O 0.1400000000 3.1400000000 2.7100000000 
H 0.8000000000 2.9000000000 3.3800000000 
H 9.1100000000 2.9200000000 3.0300000000 
O 3.4700000000 9.3700000000 3.3500000000 
H 3.0300000000 8.4800000000 3.5300000000 
H 3.0200000000 9.6000000000 2.5500000000 
O 1.1200000000 2.2000000000 8.5700000000 
H 1.7900000000 2.1700000000 9.3500000000 
H 1.6600000000 2.8000000000 8.0100000000 
O 5.0400000000 2.5800000000 6.1200000000 
H 5.9300000000 2.3800000000 6.4600000000 
H 4.6000000000 1.7200000000 6.2300000000 
O 6.6600000000 8.3000000000 1.0200000000 
H 7.0200000000 7.4300000000 0.8300000000 
H 5.8100000000 8.3500000000 0.4900000000 
O 4.1500000000 8.1600000000 9.6300000000 
H 3.9700000000 7.2800000000 0.1200000000 
H 3.2500000000 8.5900000000 9.8400000000 
O 2.8500000000 2.7700000000 0.6700000000 
H 2.8900000000 2.7700000000 1.6800000000 
H 3.5900000000 2.1600000000 0.5500000000 
O 9.5500000000 7.7500000000 5.6400000000 
H 8.9200000000 7.7200000000 4.8600000000 
H 9.6700000000 8.6600000000 5.9100000000 
O 2.2300000000 6.9800000000 4.8600000000 
H 1.2600000000 7.2700000000 5.1000000000 
H 2.4500000000 6.3200000000 5.6200000000 
O 6.1500000000 0.4900000000 3.5900000000 
H 6.5400000000 9.5000000000 3.9700000000 
H 5.2000000000 0.2700000000 3.4200000000 
O 1.7100000000 2.7200000000 5.2300000000 
H 1.6300000000 3.4700000000 5.8900000000 
H 2.5800000000 2.9600000000 4.8900000000 
O 0.6600000000 5.6100000000 1.4700000000 
H 0.4800000000 4.7800000000 1.9600000000 
H 9.7000000000 5.7600000000 1.0000000000 
O 3.7200000000 2.9400000000 3.3900000000 
H 4.2400000000 2.4500000000 4.0500000000 
H 4.2800000000 3.7300000000 3.2300000000 
O 7.5400000000 5.1300000000 4.0900000000 
H 7.8500000000 4.2400000000 4.3900000000 
H 6.5900000000 4.9200000000 3.8400000000 
O 7.5100000000 8.0200000000 3.5500000000 
H 7.4400000000 7.1100000000 3.3400000000 
H 7.3200000000 8.4600000000 2.7000000000 
O 4.9700000000 5.5400000000 3.1200000000 
H 4.4800000000 5.9200000000 3.8300000000 
H 4.5500000000 5.9100000000 2.3000000000 
O 6.3500000000 9.0200000000 7.9500000000 
H 5.3500000000 8.8300000000 8.2200000000 
H 6.4900000000 8.1400000000 7.4800000000 
O 3.6300000000 0.1200000000 6.3900000000 
H 3.0300000000 9.2900000000 6.6500000000 
H 3.8100000000 9.8300000000 5.4500000000 
O 2.1800000000 4.4200000000 7.3000000000 
H 3.0600000000 4.6600000000 6.9000000000 
H 1.9500000000 5.2500000000 7.7900000000 
O 8.7900000000 2.8000000000 0.2800000000 
H 9.5100000000 2.5300000000 9.5700000000 
H 9.2700000000 2.9200000000 1.1200000000 
O 5.2300000000 1.4100000000 0.3200000000 
H 5.4900000000 0.7500000000 9.5000000000 
H 5.8800000000 1.2000000000 1.0600000000 
O 3.2200000000 5.7500000000 1.0900000000 
H 2.2600000000 5.5700000000 1.3600000000 
H 3.4700000000 4.8700000000 0.7600000000 
O 8.6100000000 5.3800000000 7.3100000000 
H 9.3900000000 5.5900000000 7.8700000000 
H 9.0400000000 5.1900000000 6.3900000000 
O 0.5500000000 0.5600000000 6.5100000000 
H 0.7900000000 1.0200000000 7.3200000000 
H 0.8400000000 1.2200000000 5.8100000000 
O 1.0100000000 6.6000000000 8.1500000000 
H 0.6300000000 7.3700000000 7.6500000000 
H 1.0100000000 6.9600000000 9.0500000000 
O 8.9600000000 9.0700000000 9.4300000000 
H 8.0800000000 9.0900000000 9.7600000000 
H 9.0000000000 9.6300000000 8.6500000000 
O 7.2900000000 1.5600000000 7.1500000000 
H 7.8800000000 2.0500000000 7.8300000000 
H 7.0700000000 0.6200000000 7.5700000000 
O 6.7100000000 6.9800000000 6.3700000000 
H 7.0200000000 7.2400000000 5.5100000000 
H 7.5200000000 6.3900000000 6.7600000000 
O 4.4900000000 5.4200000000 6.0800000000 
H 5.2900000000 6.0200000000 6.2700000000 
H 4.8800000000 4.5400000000 5.9500000000 
O 7.5900000000 5.3900000000 0.1700000000 
H 7.8200000000 4.4300000000 0.4800000000 
H 7.7000000000 5.3100000000 9.0900000000 
O 7.8800000000 2.4600000000 4.4200000000 
H 8.0100000000 2.0800000000 5.2700000000 
H 7.3300000000 1.7700000000 4.0000000000 
O 1.2900000000 8.2800000000 0.7800000000 
H 0.4300000000 8.6300000000 0.3500000000 
H 1.1700000000 7.3800000000 1.1700000000 

